                                        
   1.00000000000000     
     1.5740712585072620    1.6091521169936920   -4.8074177951986634
    -4.8074177951986634    1.6091521169936920    1.5740712585072620
     3.2345496200694157    3.2207098340278484    3.2345496200694157
   Mo   Ta
     5     3
Direct
  0.0002897264169732  0.9958023520552430  0.9990783507857088
  0.4958023520552430  0.5002897264169732  0.9990783507857088
  0.0000000000000000  0.5000000000000000  0.7500000000000000
  0.9997102735830268  0.0041976479447570  0.5009216492142912
  0.5041976479447570  0.4997102735830268  0.5009216492142912
  0.5000000000000000  0.0000000000000000  0.7500000000000000
  0.0000000000000000  0.5000000000000000  0.2500000000000000
  0.5000000000000000  0.0000000000000000  0.2500000000000000
 
  0.00000000E+00  0.00000000E+00  0.00000000E+00
  0.00000000E+00  0.00000000E+00  0.00000000E+00
  0.00000000E+00  0.00000000E+00  0.00000000E+00
  0.00000000E+00  0.00000000E+00  0.00000000E+00
  0.00000000E+00  0.00000000E+00  0.00000000E+00
  0.00000000E+00  0.00000000E+00  0.00000000E+00
  0.00000000E+00  0.00000000E+00  0.00000000E+00
  0.00000000E+00  0.00000000E+00  0.00000000E+00
