                                        
   1.00000000000000     
     3.2690581273180839    3.2690581273180839    0.0000000000000000
    -4.9181382691482227    1.6490801418301391    1.5955903886002978
     1.6678976996807591   -1.6678976996807591    4.8916832331873721
   Mo   Ta
     2     5
Direct
  0.0005238759664010  0.0010477519328163  0.9959320675327774
  0.1423332668907449  0.2846665337814684  0.5754965038957920
  0.7189384224673532  0.4378768449347064  0.8475234702324244
  0.4239187203897927  0.8478374407795783  0.7239051011961450
  0.8655778596827588  0.7311557193655247  0.4193457830633633
  0.5714285714285694  0.1428571428571459  0.2857142857142847
  0.2772792831743800  0.5545585663487600  0.1520827883652132
 
  0.00000000E+00  0.00000000E+00  0.00000000E+00
  0.00000000E+00  0.00000000E+00  0.00000000E+00
  0.00000000E+00  0.00000000E+00  0.00000000E+00
  0.00000000E+00  0.00000000E+00  0.00000000E+00
  0.00000000E+00  0.00000000E+00  0.00000000E+00
  0.00000000E+00  0.00000000E+00  0.00000000E+00
  0.00000000E+00  0.00000000E+00  0.00000000E+00
