                                        
   1.00000000000000     
     3.1912592349414832    0.0000000000000000    0.0000000000000000
     0.0000000000000000    3.1954811561920122   -3.1954811561920122
    -1.5956296174707416    4.7999123183524599    7.9953934745444739
   Mo   Ta
     6     2
Direct
  0.9968176212864321  0.9968176212864321  0.9936352425728572
  0.3751133342978505  0.8751133342978505  0.7502266685957011
  0.7498866657021495  0.7498866657021495  0.4997733314042989
  0.1281823787135679  0.6281823787135679  0.2563647574271428
  0.8718946298781347  0.3718946298781347  0.7437892597562694
  0.2531053701218653  0.2531053701218653  0.5062107402437306
  0.4997684371758169  0.4997684371758169  0.9995368743516266
  0.6252315628241831  0.1252315628241831  0.2504631256483734
 
  0.00000000E+00  0.00000000E+00  0.00000000E+00
  0.00000000E+00  0.00000000E+00  0.00000000E+00
  0.00000000E+00  0.00000000E+00  0.00000000E+00
  0.00000000E+00  0.00000000E+00  0.00000000E+00
  0.00000000E+00  0.00000000E+00  0.00000000E+00
  0.00000000E+00  0.00000000E+00  0.00000000E+00
  0.00000000E+00  0.00000000E+00  0.00000000E+00
  0.00000000E+00  0.00000000E+00  0.00000000E+00
