                                        
   1.00000000000000     
     1.6408302394241625    1.6470076798051589    1.6470076798051589
    -4.8232187428380868    1.5972609934397433    1.5972609934397433
     1.5911942517069628   -8.0272230621615535    4.7829543889166510
   Mo   Ta
     4     4
Direct
  0.9972689797565764  0.9972689797565764  0.9945379595131456
  0.1250000000000000  0.6250000000000000  0.7500000000000000
  0.2527310202434236  0.2527310202434236  0.5054620404868544
  0.6250000000000000  0.1250000000000000  0.7500000000000000
  0.3602432552243258  0.8786228912943486  0.2500000000000000
  0.4958131720956800  0.4958131720956800  0.9916263441913529
  0.7541868279043200  0.7541868279043200  0.5083736558086471
  0.8897567447756742  0.3713771087056514  0.2500000000000000
 
  0.00000000E+00  0.00000000E+00  0.00000000E+00
  0.00000000E+00  0.00000000E+00  0.00000000E+00
  0.00000000E+00  0.00000000E+00  0.00000000E+00
  0.00000000E+00  0.00000000E+00  0.00000000E+00
  0.00000000E+00  0.00000000E+00  0.00000000E+00
  0.00000000E+00  0.00000000E+00  0.00000000E+00
  0.00000000E+00  0.00000000E+00  0.00000000E+00
  0.00000000E+00  0.00000000E+00  0.00000000E+00
