                                        
   1.00000000000000     
     1.6334393718042020    1.6086783775267468   -1.6334393718042020
    -1.6334393718042020    1.6086783775267468    1.6334393718042020
    12.8921322201209154    0.0000000000000000   12.8921322201209154
   Mo   Ta
     4     4
Direct
  0.0000000000000000  0.0000000000000000  0.0092543689164657
  0.5000000000000000  0.5000000000000000  0.1277187367022776
  0.0000000000000000  0.0000000000000000  0.2472812632977224
  0.5000000000000000  0.5000000000000000  0.3657456310835343
  0.0000000000000000  0.0000000000000000  0.4893162881755728
  0.5000000000000000  0.5000000000000000  0.6213700171756997
  0.0000000000000000  0.0000000000000000  0.7536299828243003
  0.5000000000000000  0.5000000000000000  0.8856837118244272
 
  0.00000000E+00  0.00000000E+00  0.00000000E+00
  0.00000000E+00  0.00000000E+00  0.00000000E+00
  0.00000000E+00  0.00000000E+00  0.00000000E+00
  0.00000000E+00  0.00000000E+00  0.00000000E+00
  0.00000000E+00  0.00000000E+00  0.00000000E+00
  0.00000000E+00  0.00000000E+00  0.00000000E+00
  0.00000000E+00  0.00000000E+00  0.00000000E+00
  0.00000000E+00  0.00000000E+00  0.00000000E+00
