                                        
   1.00000000000000     
     1.5983268574093501    1.5874807360903238   -1.5983268574093501
    -1.5983268574093501    1.5874807360903238    1.5983268574093501
    11.0850226515893038   -1.5874807360903238   11.0850226515893038
   Mo   Ta
     6     1
Direct
  0.9988205590712482  0.9988205590712482  0.9976411181424893
  0.8574063901875846  0.8574063901875846  0.7148127803751834
  0.7164916852748249  0.7164916852748249  0.4329833705496497
  0.5692226004394598  0.5692226004394598  0.1384452008789268
  0.4283078955267001  0.4283078955267001  0.8566157910533860
  0.2868937266430365  0.2868937266430365  0.5737874532860801
  0.1428571428571459  0.1428571428571459  0.2857142857142847
 
  0.00000000E+00  0.00000000E+00  0.00000000E+00
  0.00000000E+00  0.00000000E+00  0.00000000E+00
  0.00000000E+00  0.00000000E+00  0.00000000E+00
  0.00000000E+00  0.00000000E+00  0.00000000E+00
  0.00000000E+00  0.00000000E+00  0.00000000E+00
  0.00000000E+00  0.00000000E+00  0.00000000E+00
  0.00000000E+00  0.00000000E+00  0.00000000E+00
