                                        
   1.00000000000000     
     3.2196564428738661    0.0000000000000000    0.0000000000000000
     0.0000000000000000    3.2373686428081809   -3.2373686428081809
    -1.6098282214369330    4.7497008739554785    7.9870695167636603
   Mo   Ta
     5     3
Direct
  0.9975253059209095  0.9975253059209095  0.9950506118418190
  0.3750000000000000  0.8750000000000000  0.7500000000000000
  0.7524746940790905  0.7524746940790905  0.5049493881581810
  0.4996437057336038  0.4996437057336038  0.9992874114672148
  0.2503562942663962  0.2503562942663962  0.5007125885327852
  0.1244722751151954  0.6244722751151954  0.2489445502303909
  0.8750000000000000  0.3750000000000000  0.7500000000000000
  0.6255277248848046  0.1255277248848046  0.2510554497696091
 
  0.00000000E+00  0.00000000E+00  0.00000000E+00
  0.00000000E+00  0.00000000E+00  0.00000000E+00
  0.00000000E+00  0.00000000E+00  0.00000000E+00
  0.00000000E+00  0.00000000E+00  0.00000000E+00
  0.00000000E+00  0.00000000E+00  0.00000000E+00
  0.00000000E+00  0.00000000E+00  0.00000000E+00
  0.00000000E+00  0.00000000E+00  0.00000000E+00
  0.00000000E+00  0.00000000E+00  0.00000000E+00
