                                        
   1.00000000000000     
     3.2518694019933285    0.0000000000000000    0.0000000000000000
     0.0000000000000000    3.2844508598555602   -3.2844508598555602
    -1.6259347009966643    1.6422914683616432    4.9267423282172036
   Mo   Ta
     1     3
Direct
  0.0000000000000000  0.0000000000000000  0.0000000000000000
  0.7399481622144108  0.2399481622144108  0.4798963244288146
  0.5000000000000000  0.5000000000000000  0.0000000000000000
  0.2600518377855892  0.7600518377855892  0.5201036755711854
 
  0.00000000E+00  0.00000000E+00  0.00000000E+00
  0.00000000E+00  0.00000000E+00  0.00000000E+00
  0.00000000E+00  0.00000000E+00  0.00000000E+00
  0.00000000E+00  0.00000000E+00  0.00000000E+00
