                                        
   1.00000000000000     
     3.2326864621567060    0.0000000000000000   -3.2326864621567060
     1.6322148303755730    4.9106084284766434    1.6322148303755730
     3.2519783367255837   -3.2653807096128111    3.2519783367255837
   Mo   Ta
     3     5
Direct
  0.0000000000000000  0.0083024766013438  0.0061642291768891
  0.0000000000000000  0.4916975233986562  0.2438357708231109
  0.5000000000000000  0.7500000000000000  0.6250000000000000
  0.5000000000000000  0.7500000000000000  0.1250000000000000
  0.5000000000000000  0.2669611844331499  0.3787225808364170
  0.0000000000000000  0.9885281876081109  0.5007100506899178
  0.0000000000000000  0.5114718123918891  0.7492899493100822
  0.5000000000000000  0.2330388155668501  0.8712774191635830
 
  0.00000000E+00  0.00000000E+00  0.00000000E+00
  0.00000000E+00  0.00000000E+00  0.00000000E+00
  0.00000000E+00  0.00000000E+00  0.00000000E+00
  0.00000000E+00  0.00000000E+00  0.00000000E+00
  0.00000000E+00  0.00000000E+00  0.00000000E+00
  0.00000000E+00  0.00000000E+00  0.00000000E+00
  0.00000000E+00  0.00000000E+00  0.00000000E+00
  0.00000000E+00  0.00000000E+00  0.00000000E+00
