                                        
   1.00000000000000     
     3.2109253255746770    0.0000000000000000    0.0000000000000000
    -1.6054626627873385    4.8336629225518140    1.6512587739049709
     0.0000000000000000   -3.1726385928057153    6.4548775353110397
   Mo   Ta
     4     3
Direct
  0.0017052200486560  0.0034104400972979  0.9964097752480541
  0.5731202684265710  0.1462405368531421  0.7200670319496822
  0.7125940172877137  0.4251880345754344  0.1370758251931790
  0.2840090656656287  0.5680181313312644  0.8607330818948000
  0.1428571428571459  0.2857142857142847  0.4285714285714306
  0.8608209311834685  0.7216418623669441  0.5806757482196119
  0.4248933545308162  0.8497867090616253  0.2764671089232422
 
  0.00000000E+00  0.00000000E+00  0.00000000E+00
  0.00000000E+00  0.00000000E+00  0.00000000E+00
  0.00000000E+00  0.00000000E+00  0.00000000E+00
  0.00000000E+00  0.00000000E+00  0.00000000E+00
  0.00000000E+00  0.00000000E+00  0.00000000E+00
  0.00000000E+00  0.00000000E+00  0.00000000E+00
  0.00000000E+00  0.00000000E+00  0.00000000E+00
