                                        
   1.00000000000000     
    -3.2601665679664493    0.0000000000000000    0.0000000000000000
     0.0000000000000000    3.2807815127469184    3.2807815127469184
     0.0000000000000000    3.2807815127469184   -3.2807815127469184
   Mo   Ta
     1     3
Direct
  0.0000000000000000  0.0000000000000000  0.0000000000000000
  0.5000000000000000  0.0000000000000000  0.5000000000000000
  0.5000000000000000  0.5000000000000000  0.0000000000000000
  0.0000000000000000  0.5000000000000000  0.5000000000000000
 
  0.00000000E+00  0.00000000E+00  0.00000000E+00
  0.00000000E+00  0.00000000E+00  0.00000000E+00
  0.00000000E+00  0.00000000E+00  0.00000000E+00
  0.00000000E+00  0.00000000E+00  0.00000000E+00
