                                        
   1.00000000000000     
     1.6367115050071206    1.6506289773213985    1.6367115050071206
     1.6347054163422898    4.8322016230506097   -4.7882546802457657
    -4.7882546802457657    4.8322016230506097    1.6347054163422898
   Mo   Ta
     4     4
Direct
  0.0000000000000000  0.9963554222179809  0.0036445777820191
  0.7496312170648238  0.6282412593461757  0.1282412593461757
  0.2503687829351762  0.8717587406538243  0.3717587406538243
  0.0000000000000000  0.5036445777820191  0.4963554222179809
  0.5000000000000000  0.2500000000000000  0.2500000000000000
  0.7703379330015991  0.1241221988122518  0.6241221988122518
  0.5000000000000000  0.7500000000000000  0.7500000000000000
  0.2296620669984009  0.3758778011877482  0.8758778011877482
 
  0.00000000E+00  0.00000000E+00  0.00000000E+00
  0.00000000E+00  0.00000000E+00  0.00000000E+00
  0.00000000E+00  0.00000000E+00  0.00000000E+00
  0.00000000E+00  0.00000000E+00  0.00000000E+00
  0.00000000E+00  0.00000000E+00  0.00000000E+00
  0.00000000E+00  0.00000000E+00  0.00000000E+00
  0.00000000E+00  0.00000000E+00  0.00000000E+00
  0.00000000E+00  0.00000000E+00  0.00000000E+00
