                                        
   1.00000000000000     
     1.6047395269660676    1.6047395269660678    1.6047395269660676
     1.5902782479517743   -4.7852960228696162    1.5902782479517743
     1.5902782479517743    1.5902782479517743   -4.7852960228696162
   Mo   Ta
     3     1
Direct
  0.0000000000000000  0.0000000000000000  0.0000000000000000
  0.5000000000000000  0.0000000000000000  0.5000000000000000
  0.0000000000000000  0.5000000000000000  0.5000000000000000
  0.5000000000000000  0.5000000000000000  0.0000000000000000
 
  0.00000000E+00  0.00000000E+00  0.00000000E+00
  0.00000000E+00  0.00000000E+00  0.00000000E+00
  0.00000000E+00  0.00000000E+00  0.00000000E+00
  0.00000000E+00  0.00000000E+00  0.00000000E+00
