                                        
   1.00000000000000     
    -3.2713575216088122    0.0000000000000000    0.0000000000000000
     0.0000000000000000    3.2977216063410104    3.2977216063410104
     0.0000000000000000    3.2989590853748867   -6.5966806917158971
   Mo   Ta
     1     5
Direct
  0.0000000000000000  0.0000000000000000  0.0000000000000000
  0.5000000000000000  0.1603781728078104  0.3207563456156350
  0.0000000000000000  0.3297683832833087  0.6595367665666032
  0.5000000000000000  0.5000000000000000  0.0000000000000000
  0.0000000000000000  0.6702316167166913  0.3404632334333968
  0.5000000000000000  0.8396218271921896  0.6792436543843650
 
  0.00000000E+00  0.00000000E+00  0.00000000E+00
  0.00000000E+00  0.00000000E+00  0.00000000E+00
  0.00000000E+00  0.00000000E+00  0.00000000E+00
  0.00000000E+00  0.00000000E+00  0.00000000E+00
  0.00000000E+00  0.00000000E+00  0.00000000E+00
  0.00000000E+00  0.00000000E+00  0.00000000E+00
