                                        
   1.00000000000000     
     3.2485305074231960    0.0000000000000000    0.0000000000000000
     0.0000000000000000    3.2485305074231960    0.0000000000000000
    -1.6242652537115980   -1.6242652537115980    4.9263096617055915
   Mo   Ta
     1     2
Direct
  0.0000000000000000  0.0000000000000000  0.0000000000000000
  0.3406048001624953  0.3406048001624953  0.6812096003249835
  0.6593951998375047  0.6593951998375047  0.3187903996750165
 
  0.00000000E+00  0.00000000E+00  0.00000000E+00
  0.00000000E+00  0.00000000E+00  0.00000000E+00
  0.00000000E+00  0.00000000E+00  0.00000000E+00
