                                        
   1.00000000000000     
     3.2207249947781764    3.2207249947781764    0.0000000000000000
    -4.8319203525615197    1.6111953577833420    1.6242700732054043
     1.5994017613770013   -1.5994017613770013    4.8271540841002460
   Mo   Ta
     4     3
Direct
  0.9958867945720016  0.9917735891440032  0.0032820381563781
  0.7147662235710257  0.4295324471420514  0.8526381688450471
  0.4312034634226336  0.8624069268452601  0.7123847327777852
  0.8579021813440164  0.7158043626880399  0.4317117485726527
  0.1430827245372726  0.2861654490745380  0.5835739765994958
  0.5744177471236824  0.1488354942473862  0.2794387234807587
  0.2827408654293606  0.5654817308587283  0.1369706115678895
 
  0.00000000E+00  0.00000000E+00  0.00000000E+00
  0.00000000E+00  0.00000000E+00  0.00000000E+00
  0.00000000E+00  0.00000000E+00  0.00000000E+00
  0.00000000E+00  0.00000000E+00  0.00000000E+00
  0.00000000E+00  0.00000000E+00  0.00000000E+00
  0.00000000E+00  0.00000000E+00  0.00000000E+00
  0.00000000E+00  0.00000000E+00  0.00000000E+00
