                                        
   1.00000000000000     
     3.2840651687108044    0.0000000000000000    3.2840651687108044
     3.2840651687108044    3.2840651687108044    0.0000000000000000
    -1.5905117723591955    4.8745769410699999    4.8745769410699999
   Mo   Ta
     2     5
Direct
  0.0009679352765701  0.0009679352765701  0.9970961941702825
  0.7133177790091452  0.7133177790091452  0.8600466629725716
  0.8571428571428541  0.8571428571428541  0.4285714285714306
  0.5726754646413639  0.5726754646413639  0.2819736060758942
  0.4278908237912091  0.4278908237912091  0.7163275286263939
  0.2863948904945062  0.2863948904945062  0.1408153285164673
  0.1416102496443514  0.1416102496443514  0.5751692510669599
 
  0.00000000E+00  0.00000000E+00  0.00000000E+00
  0.00000000E+00  0.00000000E+00  0.00000000E+00
  0.00000000E+00  0.00000000E+00  0.00000000E+00
  0.00000000E+00  0.00000000E+00  0.00000000E+00
  0.00000000E+00  0.00000000E+00  0.00000000E+00
  0.00000000E+00  0.00000000E+00  0.00000000E+00
  0.00000000E+00  0.00000000E+00  0.00000000E+00
