                                        
   1.00000000000000     
     3.2445439510988998    0.0000000000000000    0.0000000000000000
    -1.6222719755494499    4.8968436132560980   -1.6985852638957799
     0.0000000000000000   -0.0709979522473902    6.5800371184014930
   Mo   Ta
     2     4
Direct
  0.9966049214020813  0.9932098428041698  0.0017886187254419
  0.3367284119312544  0.6734568238624945  0.1648780479412224
  0.6686689850039400  0.3373379700078942  0.3240649482346498
  0.9971057032646371  0.9942114065292742  0.4918273397726765
  0.3362276300686986  0.6724552601373901  0.6748393268939878
  0.6646643483293886  0.3293286966587772  0.8426017184320216
 
  0.00000000E+00  0.00000000E+00  0.00000000E+00
  0.00000000E+00  0.00000000E+00  0.00000000E+00
  0.00000000E+00  0.00000000E+00  0.00000000E+00
  0.00000000E+00  0.00000000E+00  0.00000000E+00
  0.00000000E+00  0.00000000E+00  0.00000000E+00
  0.00000000E+00  0.00000000E+00  0.00000000E+00
