                                        
   1.00000000000000     
    -3.1795405592482058    0.0000000000000000    0.0000000000000000
     0.0000000000000000    3.1841709592769778    3.1841709592769778
     0.0000000000000000    3.1838108750316958   -6.3679818343086740
   Mo   Ta
     5     1
Direct
  0.0000000000000000  0.0027633026443254  0.0055266052886509
  0.5000000000000000  0.1662971088596592  0.3325942177193326
  0.0000000000000000  0.3333333333333357  0.6666666666666643
  0.5000000000000000  0.5003695578070051  0.0007391156140031
  0.0000000000000000  0.6639033640223388  0.3278067280446848
  0.5000000000000000  0.8333333333333357  0.6666666666666643
 
  0.00000000E+00  0.00000000E+00  0.00000000E+00
  0.00000000E+00  0.00000000E+00  0.00000000E+00
  0.00000000E+00  0.00000000E+00  0.00000000E+00
  0.00000000E+00  0.00000000E+00  0.00000000E+00
  0.00000000E+00  0.00000000E+00  0.00000000E+00
  0.00000000E+00  0.00000000E+00  0.00000000E+00
