                                        
   1.00000000000000     
    -3.2720322740584540    0.0000000000000000   -3.2720322740584540
     0.0000000000000000   -3.2720322740584540    3.2720322740584540
    -3.2391904541719270    3.2391904541719270    3.2391904541719270
   Mo   Ta
     2     4
Direct
  0.0000000000000000  0.0000000000000000  0.0047076368685026
  0.3333333333333357  0.6666666666666643  0.1619590297981617
  0.6666666666666643  0.3333333333333357  0.3313166828161727
  0.0000000000000000  0.0000000000000000  0.5037384934684255
  0.3333333333333357  0.6666666666666643  0.6629281731982388
  0.6666666666666643  0.3333333333333357  0.8353499838504987
 
  0.00000000E+00  0.00000000E+00  0.00000000E+00
  0.00000000E+00  0.00000000E+00  0.00000000E+00
  0.00000000E+00  0.00000000E+00  0.00000000E+00
  0.00000000E+00  0.00000000E+00  0.00000000E+00
  0.00000000E+00  0.00000000E+00  0.00000000E+00
  0.00000000E+00  0.00000000E+00  0.00000000E+00
