                                        
   1.00000000000000     
    -1.6470605631589315    4.9378263930420552    1.6460808960541895
     4.9378263930420552   -1.6470605631589315    1.6460808960541895
     1.6559667139545164    1.6559667139545164   -4.9594324732187554
   Mo   Ta
     1     7
Direct
  0.0000000000000000  0.0000000000000000  0.0000000000000000
  0.3631734079073041  0.8755983669573268  0.7518903797806615
  0.7508388959432608  0.7508388959432608  0.5126351570893988
  0.1244016330426732  0.6368265920926959  0.2481096202193385
  0.5000000000000000  0.5000000000000000  0.0000000000000000
  0.8755983669573268  0.3631734079073041  0.7518903797806615
  0.2491611040567392  0.2491611040567392  0.4873648429106012
  0.6368265920926959  0.1244016330426732  0.2481096202193385
 
  0.00000000E+00  0.00000000E+00  0.00000000E+00
  0.00000000E+00  0.00000000E+00  0.00000000E+00
  0.00000000E+00  0.00000000E+00  0.00000000E+00
  0.00000000E+00  0.00000000E+00  0.00000000E+00
  0.00000000E+00  0.00000000E+00  0.00000000E+00
  0.00000000E+00  0.00000000E+00  0.00000000E+00
  0.00000000E+00  0.00000000E+00  0.00000000E+00
  0.00000000E+00  0.00000000E+00  0.00000000E+00
