                                        
   1.00000000000000     
     3.2223486364625877    0.0000000000000000    0.0000000000000000
     0.0000000000000000    3.2564177277152822    3.2564177277152822
     0.0000000000000000   -6.4262660200740989    6.4262660200740989
   Mo   Ta
     4     4
Direct
  0.0000000000000000  0.0000000000000000  0.0059927807650979
  0.5000000000000000  0.5000000000000000  0.9998632435931114
  0.5000000000000000  0.0000000000000000  0.2433199246046627
  0.5000000000000000  0.5000000000000000  0.4994630068083836
  0.0000000000000000  0.5000000000000000  0.2491701916872913
  0.0000000000000000  0.0000000000000000  0.4936809762128291
  0.5000000000000000  0.0000000000000000  0.7573023576849351
  0.0000000000000000  0.5000000000000000  0.7512075186436959
 
  0.00000000E+00  0.00000000E+00  0.00000000E+00
  0.00000000E+00  0.00000000E+00  0.00000000E+00
  0.00000000E+00  0.00000000E+00  0.00000000E+00
  0.00000000E+00  0.00000000E+00  0.00000000E+00
  0.00000000E+00  0.00000000E+00  0.00000000E+00
  0.00000000E+00  0.00000000E+00  0.00000000E+00
  0.00000000E+00  0.00000000E+00  0.00000000E+00
  0.00000000E+00  0.00000000E+00  0.00000000E+00
