                                        
   1.00000000000000     
    -3.2246454927510975    0.0000000000000000    0.0000000000000000
     0.0000000000000000    3.1958059606020535    3.1958059606020535
     0.0000000000000000    3.3214347390953884   -6.5172406996974424
   Mo   Ta
     3     3
Direct
  0.0000000000000000  0.0030335296711996  0.0060670593423922
  0.5000000000000000  0.1666666666666643  0.3333333333333357
  0.0000000000000000  0.3302998036621361  0.6605996073242721
  0.5000000000000000  0.4960842216379575  0.9921684432759150
  0.0000000000000000  0.6666666666666643  0.3333333333333357
  0.5000000000000000  0.8372491116953782  0.6744982233907493
 
  0.00000000E+00  0.00000000E+00  0.00000000E+00
  0.00000000E+00  0.00000000E+00  0.00000000E+00
  0.00000000E+00  0.00000000E+00  0.00000000E+00
  0.00000000E+00  0.00000000E+00  0.00000000E+00
  0.00000000E+00  0.00000000E+00  0.00000000E+00
  0.00000000E+00  0.00000000E+00  0.00000000E+00
