                                        
   1.00000000000000     
     1.6570073319523240    1.6685083738197839   -1.6646340366907726
    -1.6194953736624929    4.8628505295577762    1.5591540743004846
     4.8803386874383419    1.5819579638586960    4.8166123057129528
   Mo   Ta
     2     4
Direct
  0.0051082833401637  0.0014540324630019  0.9969478314355129
  0.3282250499931720  0.3318793008703338  0.6697188352311514
  0.1666666666666643  0.1666666666666643  0.3333333333333357
  0.4915055733919118  0.4979144603133108  0.9954065271129267
  0.6666666666666643  0.6666666666666643  0.3333333333333357
  0.8418277599414239  0.8354188730200249  0.6712601395537376
 
  0.00000000E+00  0.00000000E+00  0.00000000E+00
  0.00000000E+00  0.00000000E+00  0.00000000E+00
  0.00000000E+00  0.00000000E+00  0.00000000E+00
  0.00000000E+00  0.00000000E+00  0.00000000E+00
  0.00000000E+00  0.00000000E+00  0.00000000E+00
  0.00000000E+00  0.00000000E+00  0.00000000E+00
