                                        
   1.00000000000000     
     3.2870966513058222   -3.2870966513058222    0.0000000000000000
     3.2913893297523567    3.2913893297523567    0.0000000000000000
    -1.6435483256529111    1.6435483256529111    4.9400064114514768
   Mo   Ta
     1     5
Direct
  0.0000000000000000  0.0000000000000000  0.0000000000000000
  0.1632023640562608  0.5000000000000000  0.3264047281125357
  0.3383285019995697  0.0000000000000000  0.6766570039991464
  0.5000000000000000  0.5000000000000000  0.0000000000000000
  0.6616714980004303  0.0000000000000000  0.3233429960008536
  0.8367976359437392  0.5000000000000000  0.6735952718874643
 
  0.00000000E+00  0.00000000E+00  0.00000000E+00
  0.00000000E+00  0.00000000E+00  0.00000000E+00
  0.00000000E+00  0.00000000E+00  0.00000000E+00
  0.00000000E+00  0.00000000E+00  0.00000000E+00
  0.00000000E+00  0.00000000E+00  0.00000000E+00
  0.00000000E+00  0.00000000E+00  0.00000000E+00
