                                        
   1.00000000000000     
     1.6283598580161203    1.6535262543432647   -1.6348383606021630
    -4.7851229455747477    4.7925342483502522    1.5665085108550751
     4.7927260180640774   -1.6339993812545888    4.8317868684563035
   Mo   Ta
     4     3
Direct
  0.9940769274334258  0.9945488994199252  0.9975589256138377
  0.7103092593153590  0.8562355649205955  0.2824605000614895
  0.4325478835417869  0.7151930065079739  0.5746823570813646
  0.1487802154237201  0.5768796720086442  0.8595839315290164
  0.8716358050693529  0.4336136375749646  0.1443140943130459
  0.5714285714285694  0.2857142857142847  0.4285714285714306
  0.2712213377877859  0.1378149338536119  0.7128287628298153
 
  0.00000000E+00  0.00000000E+00  0.00000000E+00
  0.00000000E+00  0.00000000E+00  0.00000000E+00
  0.00000000E+00  0.00000000E+00  0.00000000E+00
  0.00000000E+00  0.00000000E+00  0.00000000E+00
  0.00000000E+00  0.00000000E+00  0.00000000E+00
  0.00000000E+00  0.00000000E+00  0.00000000E+00
  0.00000000E+00  0.00000000E+00  0.00000000E+00
