                                        
   1.00000000000000     
     3.2667103398122297    0.0000000000000000    0.0000000000000000
    -1.6333551699061148    4.9364408017352153   -1.6510552429525154
     0.0000000000000000    0.0061073115208325    6.6226786173295205
   Mo   Ta
     1     5
Direct
  0.0000000000000000  0.0000000000000000  0.0000000000000000
  0.3406435024702361  0.6812870049404580  0.1630658018518929
  0.6652889589949353  0.3305779179898778  0.3261952144201032
  0.0000000000000000  0.0000000000000000  0.5000000000000000
  0.3347110410050647  0.6694220820101222  0.6738047855798968
  0.6593564975297639  0.3187129950595420  0.8369341981481071
 
  0.00000000E+00  0.00000000E+00  0.00000000E+00
  0.00000000E+00  0.00000000E+00  0.00000000E+00
  0.00000000E+00  0.00000000E+00  0.00000000E+00
  0.00000000E+00  0.00000000E+00  0.00000000E+00
  0.00000000E+00  0.00000000E+00  0.00000000E+00
  0.00000000E+00  0.00000000E+00  0.00000000E+00
