                                        
   1.00000000000000     
     1.6124259652710640    1.6112084432662803   -1.6131513799849801
    -1.6022493616212503    4.7932671369884199    1.5829705024001388
     4.8051677863008999    1.5860900069404591    4.7822577056139615
   Mo   Ta
     4     2
Direct
  0.0024546185860004  0.9997168324501402  0.0021780456915081
  0.1666666666666643  0.1666666666666643  0.3333333333333357
  0.3308787147473353  0.3336165008831955  0.6644886209751562
  0.6666666666666643  0.6666666666666643  0.3333333333333357
  0.4941342618281439  0.4974776675844979  0.0039814333480095
  0.8391990715051918  0.8358556657488379  0.6626852333186548
 
  0.00000000E+00  0.00000000E+00  0.00000000E+00
  0.00000000E+00  0.00000000E+00  0.00000000E+00
  0.00000000E+00  0.00000000E+00  0.00000000E+00
  0.00000000E+00  0.00000000E+00  0.00000000E+00
  0.00000000E+00  0.00000000E+00  0.00000000E+00
  0.00000000E+00  0.00000000E+00  0.00000000E+00
