                                        
   1.00000000000000     
     1.6335829867600962    1.6074189112847070   -1.6335829867600962
    -1.6335829867600962    1.6074189112847070    1.6335829867600962
    11.1872875056678591   -1.6074189112847068   11.1872875056678591
   Mo   Ta
     4     3
Direct
  0.9987196005515244  0.9987196005515244  0.9974392011030417
  0.8615621903112611  0.8615621903112611  0.7231243806225294
  0.5670092382601624  0.5670092382601624  0.1340184765203318
  0.4298518280199062  0.4298518280199062  0.8597036560398124
  0.7142857142857153  0.7142857142857153  0.4285714285714306
  0.2903348068067615  0.2903348068067615  0.5806696136135159
  0.1382366217646691  0.1382366217646691  0.2764732435293382
 
  0.00000000E+00  0.00000000E+00  0.00000000E+00
  0.00000000E+00  0.00000000E+00  0.00000000E+00
  0.00000000E+00  0.00000000E+00  0.00000000E+00
  0.00000000E+00  0.00000000E+00  0.00000000E+00
  0.00000000E+00  0.00000000E+00  0.00000000E+00
  0.00000000E+00  0.00000000E+00  0.00000000E+00
  0.00000000E+00  0.00000000E+00  0.00000000E+00
