                                        
   1.00000000000000     
    -3.2531100214610293    0.0000000000000000    0.0000000000000000
     0.0000000000000000    3.2682608175383723    3.2682608175383723
     0.0000000000000000    3.2555959046807375   -6.5238567222191088
   Mo   Ta
     2     4
Direct
  0.0000000000000000  0.0011758045950145  0.0023516091900362
  0.0000000000000000  0.3321575287383212  0.6643150574766281
  0.5000000000000000  0.1666666666666643  0.3333333333333357
  0.5000000000000000  0.4955986480263235  0.9911972960526541
  0.0000000000000000  0.6666666666666643  0.3333333333333357
  0.5000000000000000  0.8377346853070122  0.6754693706140102
 
  0.00000000E+00  0.00000000E+00  0.00000000E+00
  0.00000000E+00  0.00000000E+00  0.00000000E+00
  0.00000000E+00  0.00000000E+00  0.00000000E+00
  0.00000000E+00  0.00000000E+00  0.00000000E+00
  0.00000000E+00  0.00000000E+00  0.00000000E+00
  0.00000000E+00  0.00000000E+00  0.00000000E+00
