                                        
   1.00000000000000     
     1.6612848641731406    1.6612848641731406   -1.6631686538389392
    -3.2760574467150643    3.2760574467150643    0.0000000000000000
     4.9121152343995869    1.6360577876845233    8.2181531156764951
   Mo   Ta
     1     6
Direct
  0.0000000000000000  0.0000000000000000  0.0000000000000000
  0.5828937493126247  0.8594526367419704  0.7189052734839407
  0.1429914039842330  0.7140134517160206  0.4280269034320270
  0.7373178668445419  0.5695156061697659  0.1390312123395461
  0.2626821331554581  0.4304843938302341  0.8609687876604539
  0.8570085960157670  0.2859865482839794  0.5719730965679730
  0.4171062506873753  0.1405473632580296  0.2810947265160593
 
  0.00000000E+00  0.00000000E+00  0.00000000E+00
  0.00000000E+00  0.00000000E+00  0.00000000E+00
  0.00000000E+00  0.00000000E+00  0.00000000E+00
  0.00000000E+00  0.00000000E+00  0.00000000E+00
  0.00000000E+00  0.00000000E+00  0.00000000E+00
  0.00000000E+00  0.00000000E+00  0.00000000E+00
  0.00000000E+00  0.00000000E+00  0.00000000E+00
