                                        
   1.00000000000000     
     1.6250458762229341   -1.6250458762229341    1.6454947804689344
     3.2248320356169473    3.2248320356169473    0.0000000000000000
    -4.7913297845912544    4.7913297845912544    8.0594834037419698
   Mo   Ta
     4     4
Direct
  0.0049671389916099  0.0000000000000000  0.0076876119679667
  0.3730580816056062  0.5000000000000000  0.1285566453215026
  0.7519419183943938  0.0000000000000000  0.2464433546784974
  0.1200328610083901  0.5000000000000000  0.3673123880320333
  0.4878099717374766  0.0000000000000000  0.4914666170566377
  0.8775487771136454  0.5000000000000000  0.6216567137802116
  0.2474512228863546  0.0000000000000000  0.7533432862197884
  0.6371900282625234  0.5000000000000000  0.8835333829433623
 
  0.00000000E+00  0.00000000E+00  0.00000000E+00
  0.00000000E+00  0.00000000E+00  0.00000000E+00
  0.00000000E+00  0.00000000E+00  0.00000000E+00
  0.00000000E+00  0.00000000E+00  0.00000000E+00
  0.00000000E+00  0.00000000E+00  0.00000000E+00
  0.00000000E+00  0.00000000E+00  0.00000000E+00
  0.00000000E+00  0.00000000E+00  0.00000000E+00
  0.00000000E+00  0.00000000E+00  0.00000000E+00
