                                        
   1.00000000000000     
     1.6342353981950322    1.6568085361573868   -4.9003316108453561
    -4.9003316108453561    1.6568085361573868    1.6342353981950322
     3.2081750749014386    3.1978423826006015    3.2081750749014386
   Mo   Ta
     3     5
Direct
  0.0007544006475158  0.9944953903361125  0.9992143099421327
  0.4944953903361125  0.5007544006475158  0.9992143099421327
  0.0053799365234966  0.5053799365234966  0.7517787474970135
  0.5086714843846565  0.0086714843846565  0.7530630897254866
  0.0001110496554801  0.0083251826563213  0.5017975362450571
  0.5083251826563213  0.5001110496554801  0.5017975362450571
  0.9917888568484585  0.4917888568484585  0.2480343586333902
  0.4904736989479517  0.9904736989479517  0.2451001117697089
 
  0.00000000E+00  0.00000000E+00  0.00000000E+00
  0.00000000E+00  0.00000000E+00  0.00000000E+00
  0.00000000E+00  0.00000000E+00  0.00000000E+00
  0.00000000E+00  0.00000000E+00  0.00000000E+00
  0.00000000E+00  0.00000000E+00  0.00000000E+00
  0.00000000E+00  0.00000000E+00  0.00000000E+00
  0.00000000E+00  0.00000000E+00  0.00000000E+00
  0.00000000E+00  0.00000000E+00  0.00000000E+00
