                                        
   1.00000000000000     
     3.2165965263799743    0.0000000000000000    0.0000000000000000
     0.0000000000000000    3.2024045479576464   -3.2024045479576460
    -1.6082982631899871    4.8349513959151009    8.0373559438727487
   Mo   Ta
     5     3
Direct
  0.9979985146003258  0.9979985146003258  0.9959970292006446
  0.3758870077006904  0.8758870077006904  0.7517740154013808
  0.7500000000000000  0.7500000000000000  0.5000000000000000
  0.1241129922993096  0.6241129922993096  0.2482259845986192
  0.5020014853996742  0.5020014853996742  0.0040029707993554
  0.8783153188979895  0.3783153188979895  0.7566306377959862
  0.2500000000000000  0.2500000000000000  0.5000000000000000
  0.6216846811020105  0.1216846811020105  0.2433693622040138
 
  0.00000000E+00  0.00000000E+00  0.00000000E+00
  0.00000000E+00  0.00000000E+00  0.00000000E+00
  0.00000000E+00  0.00000000E+00  0.00000000E+00
  0.00000000E+00  0.00000000E+00  0.00000000E+00
  0.00000000E+00  0.00000000E+00  0.00000000E+00
  0.00000000E+00  0.00000000E+00  0.00000000E+00
  0.00000000E+00  0.00000000E+00  0.00000000E+00
  0.00000000E+00  0.00000000E+00  0.00000000E+00
