                                        
   1.00000000000000     
     3.2269439282442836    0.0000000000000000    0.0000000000000000
     0.0000000000000000    3.1955649880873009   -3.1955649880873009
    -1.6134719641221418    4.9485924598546962    8.1441574479419998
   Mo   Ta
     4     4
Direct
  0.9976072767113777  0.9976072767113777  0.9952145534227625
  0.3755252344765836  0.8755252344765836  0.7510504689531743
  0.7494747655234164  0.7494747655234164  0.4989495310468257
  0.1273927232886223  0.6273927232886223  0.2547854465772375
  0.5027279197271639  0.5027279197271639  0.0054558394543136
  0.8751552418411279  0.3751552418411279  0.7503104836822700
  0.2498447581588721  0.2498447581588721  0.4996895163177300
  0.6222720802728361  0.1222720802728432  0.2445441605456864
 
  0.00000000E+00  0.00000000E+00  0.00000000E+00
  0.00000000E+00  0.00000000E+00  0.00000000E+00
  0.00000000E+00  0.00000000E+00  0.00000000E+00
  0.00000000E+00  0.00000000E+00  0.00000000E+00
  0.00000000E+00  0.00000000E+00  0.00000000E+00
  0.00000000E+00  0.00000000E+00  0.00000000E+00
  0.00000000E+00  0.00000000E+00  0.00000000E+00
  0.00000000E+00  0.00000000E+00  0.00000000E+00
