                                        
   1.00000000000000     
     1.6373967496254414    1.6373967496254414   -1.6373967496254414
    -4.8076243596581527    4.7814828873039144    1.6112552772712037
     4.7814828873039144   -1.6112552772712037    4.8076243596581527
   Mo   Ta
     4     3
Direct
  0.9924120766937961  0.0000000000000000  0.0000000000000000
  0.7161755525304656  0.8548709991118386  0.2855760752435401
  0.4305994772869255  0.7144239247564599  0.5692949238682985
  0.8613045534186199  0.4307050761317015  0.1451290008881614
  0.1467063701573608  0.5778813264025615  0.8627294439993207
  0.5688250437547993  0.2848481175967663  0.4221186735974385
  0.2839769261580329  0.1372705560006793  0.7151518824032337
 
  0.00000000E+00  0.00000000E+00  0.00000000E+00
  0.00000000E+00  0.00000000E+00  0.00000000E+00
  0.00000000E+00  0.00000000E+00  0.00000000E+00
  0.00000000E+00  0.00000000E+00  0.00000000E+00
  0.00000000E+00  0.00000000E+00  0.00000000E+00
  0.00000000E+00  0.00000000E+00  0.00000000E+00
  0.00000000E+00  0.00000000E+00  0.00000000E+00
