                                        
   1.00000000000000     
     3.2299007019008497    3.2299007019008497    0.0000000000000000
    -4.8613088231392627    1.6314081212384137    1.6930363151439971
     1.5724622579316974   -1.5724622579316974    4.8747820410191638
   Mo   Ta
     3     4
Direct
  0.9953298502025021  0.9906597004050042  0.9981032776644767
  0.7142857142857153  0.4285714285714306  0.8571428571428541
  0.4332415783689285  0.8664831567378499  0.7161824366212386
  0.1481189236149305  0.2962378472298539  0.5839254015248301
  0.8587246435253348  0.7174492870506910  0.4337787237156334
  0.5698467850460815  0.1396935700921702  0.2805069905700819
  0.2804525049565001  0.5609050099130002  0.1303603127608852
 
  0.00000000E+00  0.00000000E+00  0.00000000E+00
  0.00000000E+00  0.00000000E+00  0.00000000E+00
  0.00000000E+00  0.00000000E+00  0.00000000E+00
  0.00000000E+00  0.00000000E+00  0.00000000E+00
  0.00000000E+00  0.00000000E+00  0.00000000E+00
  0.00000000E+00  0.00000000E+00  0.00000000E+00
  0.00000000E+00  0.00000000E+00  0.00000000E+00
