                                        
   1.00000000000000     
     1.6339850748779519    1.6000319709649886   -1.6339850748779519
    -1.6339850748779519    1.6000319709649888    1.6339850748779519
     7.9708420841303500   -1.6000319709649888    7.9708420841303500
   Mo   Ta
     3     2
Direct
  0.9959491165830272  0.9959491165830272  0.9918982331660473
  0.8040508834169700  0.8040508834169700  0.6081017668339541
  0.3999999999999986  0.3999999999999986  0.7999999999999972
  0.5966616322483134  0.5966616322483134  0.1933232644966409
  0.2033383677516909  0.2033383677516909  0.4066767355033605
 
  0.00000000E+00  0.00000000E+00  0.00000000E+00
  0.00000000E+00  0.00000000E+00  0.00000000E+00
  0.00000000E+00  0.00000000E+00  0.00000000E+00
  0.00000000E+00  0.00000000E+00  0.00000000E+00
  0.00000000E+00  0.00000000E+00  0.00000000E+00
