                                        
   1.00000000000000     
     3.2056698464390290    0.0000000000000000    0.0000000000000000
     1.6028349232195145    4.8230819079725018    1.6404981241702776
     1.6028349232195145   -1.5603487318751303    8.0594167742381639
   Mo   Ta
     5     3
Direct
  0.9959571070329218  0.0017275130432992  0.0063582728908500
  0.2502043634164934  0.3698680193976358  0.1297232537693702
  0.5000000000000000  0.7500000000000000  0.2500000000000000
  0.7497956365835066  0.1301319806023642  0.3702767462306298
  0.0040428929670782  0.4982724869567008  0.4936417271091500
  0.2567020659570360  0.8702808629975749  0.6163150050883388
  0.5000000000000000  0.2500000000000000  0.7500000000000000
  0.7432979340429640  0.6297191370024251  0.8836849949116612
 
  0.00000000E+00  0.00000000E+00  0.00000000E+00
  0.00000000E+00  0.00000000E+00  0.00000000E+00
  0.00000000E+00  0.00000000E+00  0.00000000E+00
  0.00000000E+00  0.00000000E+00  0.00000000E+00
  0.00000000E+00  0.00000000E+00  0.00000000E+00
  0.00000000E+00  0.00000000E+00  0.00000000E+00
  0.00000000E+00  0.00000000E+00  0.00000000E+00
  0.00000000E+00  0.00000000E+00  0.00000000E+00
