                                        
   1.00000000000000     
     3.1843696385681124    0.0000000000000000    0.0000000000000000
     1.5921848192840562    4.7857177414630589    1.5952392490174712
     1.5921848192840562   -1.5952392490174712    4.7857177414630589
   Mo   Ta
     4     1
Direct
  0.9967403431340927  0.0042328486851062  0.0022864650467014
  0.1990268081807969  0.3977135349532972  0.2042328486851090
  0.4009731918192045  0.8022864650466985  0.3957671513148924
  0.6032596568659088  0.1957671513148966  0.5977135349533000
  0.7999999999999972  0.6000000000000014  0.7999999999999972
 
  0.00000000E+00  0.00000000E+00  0.00000000E+00
  0.00000000E+00  0.00000000E+00  0.00000000E+00
  0.00000000E+00  0.00000000E+00  0.00000000E+00
  0.00000000E+00  0.00000000E+00  0.00000000E+00
  0.00000000E+00  0.00000000E+00  0.00000000E+00
