                                        
   1.00000000000000     
     1.6581194935042447   -1.6302427101745662    1.6581194935042447
     1.6464924536029149    4.8675232595642708    1.6464924536029149
    -6.4167115504709225    0.0000000000000000    6.4167115504709225
   Mo   Ta
     3     5
Direct
  0.9972887582812362  0.0021505930937806  0.0030110387813025
  0.5027112417187709  0.4978494069062265  0.0030110387813025
  0.7500000000000000  0.2500000000000000  0.2433702651355887
  0.2500000000000000  0.7500000000000000  0.2412852317595693
  0.5067477791538764  0.4977874906207020  0.4964307374600381
  0.9932522208461236  0.0022125093792980  0.4964307374600381
  0.2500000000000000  0.7500000000000000  0.7572903883274194
  0.7500000000000000  0.2500000000000000  0.7591705622947416
 
  0.00000000E+00  0.00000000E+00  0.00000000E+00
  0.00000000E+00  0.00000000E+00  0.00000000E+00
  0.00000000E+00  0.00000000E+00  0.00000000E+00
  0.00000000E+00  0.00000000E+00  0.00000000E+00
  0.00000000E+00  0.00000000E+00  0.00000000E+00
  0.00000000E+00  0.00000000E+00  0.00000000E+00
  0.00000000E+00  0.00000000E+00  0.00000000E+00
  0.00000000E+00  0.00000000E+00  0.00000000E+00
