                                        
   1.00000000000000     
     1.6621230797321627   -1.6800042555133026    1.6621230797321627
     1.5718379225032986    4.8594448191645654    1.5718379225032986
    -6.4412706059530187    0.0000000000000000    6.4412706059530187
   Mo   Ta
     3     5
Direct
  0.9963031657656458  0.0010516638072815  0.0035886136174526
  0.7567703156543644  0.2499658364913842  0.2500000000000000
  0.9963031657656458  0.0010516638072815  0.4964113863825474
  0.5068199089711882  0.4980258690413564  0.0036666056698493
  0.2342039304256929  0.7558563728346499  0.2500000000000000
  0.5068199089711882  0.4980258690413564  0.4963333943301507
  0.2353665139577785  0.7525702662664955  0.7500000000000000
  0.7674130904884962  0.2434524587102160  0.7500000000000000
 
  0.00000000E+00  0.00000000E+00  0.00000000E+00
  0.00000000E+00  0.00000000E+00  0.00000000E+00
  0.00000000E+00  0.00000000E+00  0.00000000E+00
  0.00000000E+00  0.00000000E+00  0.00000000E+00
  0.00000000E+00  0.00000000E+00  0.00000000E+00
  0.00000000E+00  0.00000000E+00  0.00000000E+00
  0.00000000E+00  0.00000000E+00  0.00000000E+00
  0.00000000E+00  0.00000000E+00  0.00000000E+00
