                                        
   1.00000000000000     
     3.2049622861919120    0.0000000000000000    3.2049622861919120
     3.2049622861919120    3.2049622861919120    0.0000000000000000
    -1.5806652416090194    4.7856275278009317    4.7856275278009317
   Mo   Ta
     5     2
Direct
  0.9989714354825452  0.9989714354825452  0.0030856935523573
  0.8581771073001789  0.8581771073001789  0.4254686780994561
  0.7132514641283905  0.7132514641283905  0.8602456076148286
  0.5724571359460242  0.5724571359460242  0.2826285921619274
  0.2857142857142847  0.2857142857142847  0.1428571428571459
  0.4269495591623738  0.4269495591623738  0.7191513225128858
  0.1444790122662027  0.1444790122662027  0.5665629632013989
 
  0.00000000E+00  0.00000000E+00  0.00000000E+00
  0.00000000E+00  0.00000000E+00  0.00000000E+00
  0.00000000E+00  0.00000000E+00  0.00000000E+00
  0.00000000E+00  0.00000000E+00  0.00000000E+00
  0.00000000E+00  0.00000000E+00  0.00000000E+00
  0.00000000E+00  0.00000000E+00  0.00000000E+00
  0.00000000E+00  0.00000000E+00  0.00000000E+00
