                                        
   1.00000000000000     
     1.6456753980482093    1.6757325918500710   -1.6589592072585573
    -4.8221475815936161    4.8095059313263562    1.5555090912585543
     4.8214690634684541   -1.6708508712280388    4.8664582665706133
   Mo   Ta
     3     4
Direct
  0.9926864077072679  0.9987702013006370  0.9983984701530062
  0.7142857142857153  0.8571428571428541  0.2857142857142847
  0.4358850208641627  0.7155155129850783  0.5730301012755632
  0.1567626615248443  0.5807827609129603  0.8617992000410553
  0.8676498772645971  0.4307445570630648  0.1460795112250892
  0.5609215513068264  0.2835411572226505  0.4253490602034873
  0.2718087670465863  0.1335029533727550  0.7096293713875141
 
  0.00000000E+00  0.00000000E+00  0.00000000E+00
  0.00000000E+00  0.00000000E+00  0.00000000E+00
  0.00000000E+00  0.00000000E+00  0.00000000E+00
  0.00000000E+00  0.00000000E+00  0.00000000E+00
  0.00000000E+00  0.00000000E+00  0.00000000E+00
  0.00000000E+00  0.00000000E+00  0.00000000E+00
  0.00000000E+00  0.00000000E+00  0.00000000E+00
