                                        
   1.00000000000000     
     3.2137419315681077    0.0000000000000000    0.0000000000000000
     1.6068709657840539    4.8617685486475324    1.6678244256611139
     1.6068709657840539   -1.5519207315300407    8.1318697196246994
   Mo   Ta
     4     4
Direct
  0.9966456791458640  0.9997376372635216  0.0069710044447504
  0.2502078665054910  0.3703294848601217  0.1292547821288963
  0.4997921334945090  0.7546705151398783  0.2457452178711037
  0.7533543208541360  0.1252623627364784  0.3680289955552496
  0.0058478051957565  0.4967337293085947  0.4915706602998995
  0.2515505029653866  0.8780597400859733  0.6188392539832535
  0.4984494970346134  0.2469402599140267  0.7561607460167465
  0.7441521948042435  0.6282662706914053  0.8834293397001005
 
  0.00000000E+00  0.00000000E+00  0.00000000E+00
  0.00000000E+00  0.00000000E+00  0.00000000E+00
  0.00000000E+00  0.00000000E+00  0.00000000E+00
  0.00000000E+00  0.00000000E+00  0.00000000E+00
  0.00000000E+00  0.00000000E+00  0.00000000E+00
  0.00000000E+00  0.00000000E+00  0.00000000E+00
  0.00000000E+00  0.00000000E+00  0.00000000E+00
  0.00000000E+00  0.00000000E+00  0.00000000E+00
