                                        
   1.00000000000000     
     3.2089895056307505    0.0000000000000000    0.0000000000000000
     1.6044947528153752    4.8281797880386828    1.5786110813556447
     1.6044947528153752   -1.6531909050402296    8.0240937475295802
   Mo   Ta
     5     3
Direct
  0.9978597590873974  0.0061130893495545  0.9981673924756436
  0.2532461721619939  0.3660354839291102  0.1274721717468950
  0.7467538278380061  0.1339645160708898  0.3725278282531050
  0.0021402409126026  0.4938869106504455  0.5018326075243564
  0.5000000000000000  0.2500000000000000  0.7500000000000000
  0.5000000000000000  0.7500000000000000  0.2500000000000000
  0.2504413469821358  0.8788472110418795  0.6202700949938347
  0.7495586530178642  0.6211527889581205  0.8797299050061653
 
  0.00000000E+00  0.00000000E+00  0.00000000E+00
  0.00000000E+00  0.00000000E+00  0.00000000E+00
  0.00000000E+00  0.00000000E+00  0.00000000E+00
  0.00000000E+00  0.00000000E+00  0.00000000E+00
  0.00000000E+00  0.00000000E+00  0.00000000E+00
  0.00000000E+00  0.00000000E+00  0.00000000E+00
  0.00000000E+00  0.00000000E+00  0.00000000E+00
  0.00000000E+00  0.00000000E+00  0.00000000E+00
