                                        
   1.00000000000000     
     1.6648002203217287   -1.6664251401313235    1.6438507216274201
     1.5455588012045589    4.8506308882475402    1.6145484954541314
    -6.4603026344504171    0.0900841844218820    6.4659225883915203
   Mo   Ta
     3     5
Direct
  0.9989790006698698  0.9987461653536229  0.0026736204070446
  0.7500000000000000  0.2500000000000000  0.2500000000000000
  0.5010209993301302  0.5012538346463771  0.4973263795929554
  0.5103126204082571  0.4958006572480613  0.0046859715511047
  0.2500000000000000  0.7500000000000000  0.2500000000000000
  0.9896873795917429  0.0041993427519387  0.4953140284488953
  0.2500000000000000  0.7500000000000000  0.7500000000000000
  0.7500000000000000  0.2500000000000000  0.7500000000000000
 
  0.00000000E+00  0.00000000E+00  0.00000000E+00
  0.00000000E+00  0.00000000E+00  0.00000000E+00
  0.00000000E+00  0.00000000E+00  0.00000000E+00
  0.00000000E+00  0.00000000E+00  0.00000000E+00
  0.00000000E+00  0.00000000E+00  0.00000000E+00
  0.00000000E+00  0.00000000E+00  0.00000000E+00
  0.00000000E+00  0.00000000E+00  0.00000000E+00
  0.00000000E+00  0.00000000E+00  0.00000000E+00
