                                        
   1.00000000000000     
     1.6392529657903026   -1.6580032869536439    1.6392529657903026
     1.5610995864887987    4.8183533150998485    1.5610995864887987
    -6.4363802601434283    0.0000000000000000    6.4363802601434283
   Mo   Ta
     4     4
Direct
  0.9962932818868993  0.9985755184708793  0.0000000000000000
  0.7500000000000000  0.2500000000000000  0.2500000000000000
  0.5037067181131007  0.5014244815291207  0.5000000000000000
  0.7500000000000000  0.2500000000000000  0.7500000000000000
  0.5139655483157455  0.4932439318221427  0.0000000000000000
  0.2500000000000000  0.7500000000000000  0.2500000000000000
  0.9860344516842545  0.0067560681778573  0.5000000000000000
  0.2500000000000000  0.7500000000000000  0.7500000000000000
 
  0.00000000E+00  0.00000000E+00  0.00000000E+00
  0.00000000E+00  0.00000000E+00  0.00000000E+00
  0.00000000E+00  0.00000000E+00  0.00000000E+00
  0.00000000E+00  0.00000000E+00  0.00000000E+00
  0.00000000E+00  0.00000000E+00  0.00000000E+00
  0.00000000E+00  0.00000000E+00  0.00000000E+00
  0.00000000E+00  0.00000000E+00  0.00000000E+00
  0.00000000E+00  0.00000000E+00  0.00000000E+00
