                                        
   1.00000000000000     
     3.2750616466093945    0.0000000000000000    0.0000000000000000
     0.0000000000000000    3.3107847917327753    3.3107847917327753
    -1.6375308233046972   -4.9201948904125317    4.9201948904125317
   Mo   Ta
     1     5
Direct
  0.0000000000000000  0.0000000000000000  0.0000000000000000
  0.1679452056163200  0.5000000000000000  0.3358904112326400
  0.3379721812426197  0.0000000000000000  0.6759443624852324
  0.5000000000000000  0.5000000000000000  0.0000000000000000
  0.6620278187573803  0.0000000000000000  0.3240556375147676
  0.8320547943836800  0.5000000000000000  0.6641095887673600
 
  0.00000000E+00  0.00000000E+00  0.00000000E+00
  0.00000000E+00  0.00000000E+00  0.00000000E+00
  0.00000000E+00  0.00000000E+00  0.00000000E+00
  0.00000000E+00  0.00000000E+00  0.00000000E+00
  0.00000000E+00  0.00000000E+00  0.00000000E+00
  0.00000000E+00  0.00000000E+00  0.00000000E+00
