                                        
   1.00000000000000     
     1.6033314060403572    1.6017914526835879   -1.6033314060403572
    -1.6033314060403572    1.6017914526835879    1.6033314060403572
     4.8150044638546543   -1.6017914526835879    4.8150044638546543
   Mo   Nb
     2     1
Direct
  0.6699897684215799  0.6699897684215799  0.3399795368431668
  0.3300102315784201  0.3300102315784201  0.6600204631568332
  0.0000000000000000  0.0000000000000000  0.0000000000000000
 
  0.00000000E+00  0.00000000E+00  0.00000000E+00
  0.00000000E+00  0.00000000E+00  0.00000000E+00
  0.00000000E+00  0.00000000E+00  0.00000000E+00
