                                        
   1.00000000000000     
     0.0000000000000000    3.2428342936527823    3.2428342936527823
     3.2397605480460654   -3.2233175086072192    3.2233175086072192
     3.2397605480460654    3.2233175086072192   -3.2233175086072192
   Mo   Nb
     4     4
Direct
  0.5000000000000000  0.7469559227770901  0.2469917130342978
  0.0000000000000000  0.4997945049361974  0.0002054950638026
  0.5000000000000000  0.2501817886687192  0.2498182113312808
  0.5000000000000000  0.2530082869657022  0.7530440772229099
  0.0000000000000000  0.0034889510796390  0.0034640085336122
  0.0000000000000000  0.0002580615867700  0.4997419384132300
  0.5000000000000000  0.7497764925194943  0.7502235074805057
  0.0000000000000000  0.4965359914663878  0.4965110489203610
 
  0.00000000E+00  0.00000000E+00  0.00000000E+00
  0.00000000E+00  0.00000000E+00  0.00000000E+00
  0.00000000E+00  0.00000000E+00  0.00000000E+00
  0.00000000E+00  0.00000000E+00  0.00000000E+00
  0.00000000E+00  0.00000000E+00  0.00000000E+00
  0.00000000E+00  0.00000000E+00  0.00000000E+00
  0.00000000E+00  0.00000000E+00  0.00000000E+00
  0.00000000E+00  0.00000000E+00  0.00000000E+00
