                                        
   1.00000000000000     
     1.6268537845504345    1.6148958964436946   -1.6268537845504345
    -1.6268537845504347    1.6148958964436946    1.6268537845504347
    12.9058490172915441    0.0000000000000000   12.9058490172915441
   Mo   Nb
     4     4
Direct
  0.5000000000000000  0.5000000000000000  0.3813925841442583
  0.0000000000000000  0.0000000000000000  0.4990784986257282
  0.0000000000000000  0.0000000000000000  0.7509215013742718
  0.5000000000000000  0.5000000000000000  0.8686074158557417
  0.0000000000000000  0.0000000000000000  0.9927451334212236
  0.5000000000000000  0.5000000000000000  0.1250000000000000
  0.0000000000000000  0.0000000000000000  0.2572548665787764
  0.5000000000000000  0.5000000000000000  0.6250000000000000
 
  0.00000000E+00  0.00000000E+00  0.00000000E+00
  0.00000000E+00  0.00000000E+00  0.00000000E+00
  0.00000000E+00  0.00000000E+00  0.00000000E+00
  0.00000000E+00  0.00000000E+00  0.00000000E+00
  0.00000000E+00  0.00000000E+00  0.00000000E+00
  0.00000000E+00  0.00000000E+00  0.00000000E+00
  0.00000000E+00  0.00000000E+00  0.00000000E+00
  0.00000000E+00  0.00000000E+00  0.00000000E+00
