                                        
   1.00000000000000     
     1.6360965432143360    1.6235075047654581    1.6254382061002950
     1.6121508135443425    4.8570980622334963   -4.8390402207557370
    -4.8406572721578103    4.8368893874736036    1.5914498161366237
   Mo   Nb
     4     4
Direct
  0.9981571145856520  0.4980152447714588  0.5072377341386982
  0.7481049876866948  0.1278873991448179  0.6273008109386993
  0.5018950123133052  0.7471126008551821  0.7476991890613007
  0.2518428854143480  0.3769847552285412  0.8677622658613018
  0.0028510370495596  0.0024587572476307  0.9919958631696346
  0.7528280903231916  0.6223792406220170  0.1219759851826865
  0.4971719096768084  0.2526207593779830  0.2530240148173135
  0.2471489629504404  0.8725412427523693  0.3830041368303654
 
  0.00000000E+00  0.00000000E+00  0.00000000E+00
  0.00000000E+00  0.00000000E+00  0.00000000E+00
  0.00000000E+00  0.00000000E+00  0.00000000E+00
  0.00000000E+00  0.00000000E+00  0.00000000E+00
  0.00000000E+00  0.00000000E+00  0.00000000E+00
  0.00000000E+00  0.00000000E+00  0.00000000E+00
  0.00000000E+00  0.00000000E+00  0.00000000E+00
  0.00000000E+00  0.00000000E+00  0.00000000E+00
