                                        
   1.00000000000000     
     1.6567985555686251    1.6078025644287961   -4.8671107656833739
    -4.8671107656833739    1.6078025644287961    1.6567985555686251
     3.2207916626464956    3.2365829056499407    3.2207916626464956
   Mo   Nb
     4     4
Direct
  0.5039572509349384  0.4960427490650616  0.0000000000000000
  0.5000000000000000  0.0000000000000000  0.7500000000000000
  0.4960427490650616  0.5039572509349384  0.5000000000000000
  0.0000000000000000  0.5000000000000000  0.2500000000000000
  0.9949395246116239  0.0050604753883761  0.0000000000000000
  0.0000000000000000  0.5000000000000000  0.7500000000000000
  0.0050604753883761  0.9949395246116239  0.5000000000000000
  0.5000000000000000  0.0000000000000000  0.2500000000000000
 
  0.00000000E+00  0.00000000E+00  0.00000000E+00
  0.00000000E+00  0.00000000E+00  0.00000000E+00
  0.00000000E+00  0.00000000E+00  0.00000000E+00
  0.00000000E+00  0.00000000E+00  0.00000000E+00
  0.00000000E+00  0.00000000E+00  0.00000000E+00
  0.00000000E+00  0.00000000E+00  0.00000000E+00
  0.00000000E+00  0.00000000E+00  0.00000000E+00
  0.00000000E+00  0.00000000E+00  0.00000000E+00
