                                        
   1.00000000000000     
     1.6225609028867665   -1.6300102553016578    1.6225609028867665
     1.5990684730639899    4.8430664051797860    1.5990684730639899
    -6.4557487492440373    0.0000000000000000    6.4557487492440373
   Mo   Nb
     4     4
Direct
  0.4974577948513215  0.5024222666251532  0.0000000000000000
  0.2500000000000000  0.7500000000000000  0.2500000000000000
  0.0025422051486785  0.9975777333748468  0.5000000000000000
  0.2500000000000000  0.7500000000000000  0.7500000000000000
  0.0048659851495927  0.9952989090452249  0.0000000000000000
  0.7500000000000000  0.2500000000000000  0.2500000000000000
  0.4951340148504073  0.5047010909547751  0.5000000000000000
  0.7500000000000000  0.2500000000000000  0.7500000000000000
 
  0.00000000E+00  0.00000000E+00  0.00000000E+00
  0.00000000E+00  0.00000000E+00  0.00000000E+00
  0.00000000E+00  0.00000000E+00  0.00000000E+00
  0.00000000E+00  0.00000000E+00  0.00000000E+00
  0.00000000E+00  0.00000000E+00  0.00000000E+00
  0.00000000E+00  0.00000000E+00  0.00000000E+00
  0.00000000E+00  0.00000000E+00  0.00000000E+00
  0.00000000E+00  0.00000000E+00  0.00000000E+00
