                                        
   1.00000000000000     
     1.6617358073040212    1.6617358073040212   -1.6626311548372885
    -3.2373740483858526    3.2373740483858526    0.0000000000000000
     4.8518352085293959    1.6144611601435441    8.1328293224813173
   Mo   Nb
     2     5
Direct
  0.2861013615397638  0.4294377670198202  0.8588755340396403
  0.4281843527459515  0.1419908044087563  0.2839816088174985
  0.0112771339328361  0.9999242408608637  0.9998484817217275
  0.5663792493861024  0.8585370485356094  0.7170740970712259
  0.1479064648996129  0.7128915228929600  0.4257830457859200
  0.7030085803528792  0.5715043305677057  0.1430086611354184
  0.8571428571428541  0.2857142857142847  0.5714285714285694
 
  0.00000000E+00  0.00000000E+00  0.00000000E+00
  0.00000000E+00  0.00000000E+00  0.00000000E+00
  0.00000000E+00  0.00000000E+00  0.00000000E+00
  0.00000000E+00  0.00000000E+00  0.00000000E+00
  0.00000000E+00  0.00000000E+00  0.00000000E+00
  0.00000000E+00  0.00000000E+00  0.00000000E+00
  0.00000000E+00  0.00000000E+00  0.00000000E+00
