                                        
   1.00000000000000     
     3.2510615297069458    0.0000000000000000    3.2510615297069458
     0.0000000000000000    3.2510615297069458    3.2510615297069458
    -1.6139550288850208   -1.6139550288850208    4.8650165585919662
   Mo   Nb
     2     3
Direct
  0.4020816576843131  0.4020816576843131  0.7937550269470464
  0.7979183423156826  0.7979183423156826  0.6062449730529522
  0.9995146084001973  0.9995146084001973  0.0014561747993938
  0.2004853915998055  0.2004853915998055  0.3985438252006048
  0.6000000000000014  0.6000000000000014  0.2000000000000028
 
  0.00000000E+00  0.00000000E+00  0.00000000E+00
  0.00000000E+00  0.00000000E+00  0.00000000E+00
  0.00000000E+00  0.00000000E+00  0.00000000E+00
  0.00000000E+00  0.00000000E+00  0.00000000E+00
  0.00000000E+00  0.00000000E+00  0.00000000E+00
