                                        
   1.00000000000000     
     1.6796353798900661    1.6425389666847057   -1.6796353798900661
    -1.6796353798900661    1.6425389666847057    1.6796353798900661
    11.3973048370122232   -1.6425389666847057   11.3973048370122232
   Mo   Nb
     1     6
Direct
  0.1428571428571459  0.1428571428571459  0.2857142857142847
  0.0017167607447917  0.0017167607447917  0.0034335214895833
  0.8563465212708437  0.8563465212708437  0.7126930425417015
  0.7106484122768393  0.7106484122768393  0.4212968245536786
  0.5750658734374454  0.5750658734374454  0.1501317468748979
  0.4293677644434410  0.4293677644434410  0.8587355288868679
  0.2839975249694930  0.2839975249694930  0.5679950499389861
 
  0.00000000E+00  0.00000000E+00  0.00000000E+00
  0.00000000E+00  0.00000000E+00  0.00000000E+00
  0.00000000E+00  0.00000000E+00  0.00000000E+00
  0.00000000E+00  0.00000000E+00  0.00000000E+00
  0.00000000E+00  0.00000000E+00  0.00000000E+00
  0.00000000E+00  0.00000000E+00  0.00000000E+00
  0.00000000E+00  0.00000000E+00  0.00000000E+00
