                                        
   1.00000000000000     
    -3.1731487579840834    0.0000000000000000    0.0000000000000000
     0.0000000000000000    0.0000000000000000    6.3541733559227369
     0.0000000000000000    6.3644287807528306   -3.1770866779613685
   Mo   Nb
     7     1
Direct
  0.5000000000000000  0.1268118012240507  0.7471043283204892
  0.0000000000000000  0.2509725583753166  0.5019451167506332
  0.5000000000000000  0.3797074729035614  0.2528956716795108
  0.0000000000000000  0.5000000000000000  0.0000000000000000
  0.5000000000000000  0.6202925270964386  0.7471043283204892
  0.0000000000000000  0.7490274416246834  0.4980548832493668
  0.5000000000000000  0.8731881987759493  0.2528956716795108
  0.0000000000000000  0.0000000000000000  0.0000000000000000
 
  0.00000000E+00  0.00000000E+00  0.00000000E+00
  0.00000000E+00  0.00000000E+00  0.00000000E+00
  0.00000000E+00  0.00000000E+00  0.00000000E+00
  0.00000000E+00  0.00000000E+00  0.00000000E+00
  0.00000000E+00  0.00000000E+00  0.00000000E+00
  0.00000000E+00  0.00000000E+00  0.00000000E+00
  0.00000000E+00  0.00000000E+00  0.00000000E+00
  0.00000000E+00  0.00000000E+00  0.00000000E+00
