                                        
   1.00000000000000     
     1.6029509864391971    1.6028059890660931   -1.6029509864391969
    -1.6029509864391971    1.6028059890660926    1.6029509864391971
    11.1698764066266385   -1.6028059890660926   11.1698764066266385
   Mo   Nb
     5     2
Direct
  0.7135202124482802  0.7135202124482802  0.4270404248965534
  0.5742684175170609  0.5742684175170609  0.1485368350341290
  0.4285714285714306  0.4285714285714306  0.8571428571428541
  0.2828744396257932  0.2828744396257932  0.5657488792515863
  0.1436226446945810  0.1436226446945810  0.2872452893891619
  0.0014718738007886  0.0014718738007886  0.0029437476015772
  0.8556709833420655  0.8556709833420655  0.7113419666841381
 
  0.00000000E+00  0.00000000E+00  0.00000000E+00
  0.00000000E+00  0.00000000E+00  0.00000000E+00
  0.00000000E+00  0.00000000E+00  0.00000000E+00
  0.00000000E+00  0.00000000E+00  0.00000000E+00
  0.00000000E+00  0.00000000E+00  0.00000000E+00
  0.00000000E+00  0.00000000E+00  0.00000000E+00
  0.00000000E+00  0.00000000E+00  0.00000000E+00
