                                        
   1.00000000000000     
     1.6102314874175112   -1.6102314874175112    1.6092694045340064
     3.1840726194434850    3.1840726194434850    0.0000000000000000
    -4.7995653013839670    4.7995653013839670    7.9841209321156033
   Mo   Nb
     6     2
Direct
  0.3824173166252933  0.5000000000000000  0.1248117108000244
  0.7425826833747067  0.0000000000000000  0.2501882891999756
  0.5042044918120112  0.0000000000000000  0.5031620868445401
  0.8728891894547246  0.5000000000000000  0.6267487859315395
  0.2521108105452754  0.0000000000000000  0.7482512140684605
  0.6207955081879888  0.5000000000000000  0.8718379131554599
  0.0001059539802952  0.0000000000000000  0.9979213657420800
  0.1248940460197048  0.5000000000000000  0.3770786342579200
 
  0.00000000E+00  0.00000000E+00  0.00000000E+00
  0.00000000E+00  0.00000000E+00  0.00000000E+00
  0.00000000E+00  0.00000000E+00  0.00000000E+00
  0.00000000E+00  0.00000000E+00  0.00000000E+00
  0.00000000E+00  0.00000000E+00  0.00000000E+00
  0.00000000E+00  0.00000000E+00  0.00000000E+00
  0.00000000E+00  0.00000000E+00  0.00000000E+00
  0.00000000E+00  0.00000000E+00  0.00000000E+00
