                                        
   1.00000000000000     
     3.2089907387354830   -3.2089907387354830    0.0000000000000000
     1.6169785462203621    4.8259692849558435   -1.6111753045653461
    -0.0039508603667976   -0.0039508603667976    6.4288948778251287
   Mo   Nb
     5     3
Direct
  0.4985937559228475  0.9971875118456879  0.2510085810557428
  0.2539804907620820  0.5079609815241710  0.3799135447525899
  0.7467524941251042  0.4935049882502014  0.6231901222355205
  0.4978754369441916  0.9957508738883831  0.7472672271093046
  0.2530321641137476  0.5060643282274810  0.8736471401684298
  0.0013479233622462  0.0026958467244853  0.9989462347560334
  0.7460744094215954  0.4921488188431979  0.1231203035660542
  0.0023433253481926  0.0046866506963923  0.5029068463563178
 
  0.00000000E+00  0.00000000E+00  0.00000000E+00
  0.00000000E+00  0.00000000E+00  0.00000000E+00
  0.00000000E+00  0.00000000E+00  0.00000000E+00
  0.00000000E+00  0.00000000E+00  0.00000000E+00
  0.00000000E+00  0.00000000E+00  0.00000000E+00
  0.00000000E+00  0.00000000E+00  0.00000000E+00
  0.00000000E+00  0.00000000E+00  0.00000000E+00
  0.00000000E+00  0.00000000E+00  0.00000000E+00
