                                        
   1.00000000000000     
    -3.2146372239881762    0.0000000000000000    0.0000000000000000
     0.0000000000000000    0.0000000000000000    6.4392303120419889
     0.0000000000000000    6.4207820344871092   -3.2196151560209945
   Mo   Nb
     5     3
Direct
  0.5000000000000000  0.1203772002595258  0.7468628021696944
  0.5000000000000000  0.3796227997404742  0.2531371978303056
  0.5000000000000000  0.6264856019101686  0.7468628021696944
  0.0000000000000000  0.7500000000000000  0.5000000000000000
  0.5000000000000000  0.8735143980898314  0.2531371978303056
  0.0000000000000000  0.9993017895229315  0.9986035790458700
  0.0000000000000000  0.2500000000000000  0.5000000000000000
  0.0000000000000000  0.5006982104770685  0.0013964209541300
 
  0.00000000E+00  0.00000000E+00  0.00000000E+00
  0.00000000E+00  0.00000000E+00  0.00000000E+00
  0.00000000E+00  0.00000000E+00  0.00000000E+00
  0.00000000E+00  0.00000000E+00  0.00000000E+00
  0.00000000E+00  0.00000000E+00  0.00000000E+00
  0.00000000E+00  0.00000000E+00  0.00000000E+00
  0.00000000E+00  0.00000000E+00  0.00000000E+00
  0.00000000E+00  0.00000000E+00  0.00000000E+00
