                                        
   1.00000000000000     
     0.0000000000000000    3.2634837720606651    3.2634837720606651
     3.2561861220746691   -3.2403967126335003    3.2403967126335003
     3.2561861220746691    3.2403967126335003   -3.2403967126335003
   Mo   Nb
     3     5
Direct
  0.5000000000000000  0.7498238189154307  0.2501761810845693
  0.0000000000000000  0.5000000000000000  0.5000000000000000
  0.5000000000000000  0.2501761810845693  0.7498238189154307
  0.0000000000000000  0.0000000000000000  0.0000000000000000
  0.0000000000000000  0.0000000000000000  0.5000000000000000
  0.5000000000000000  0.7462322518563482  0.7462322518563482
  0.0000000000000000  0.5000000000000000  0.0000000000000000
  0.5000000000000000  0.2537677481436518  0.2537677481436518
 
  0.00000000E+00  0.00000000E+00  0.00000000E+00
  0.00000000E+00  0.00000000E+00  0.00000000E+00
  0.00000000E+00  0.00000000E+00  0.00000000E+00
  0.00000000E+00  0.00000000E+00  0.00000000E+00
  0.00000000E+00  0.00000000E+00  0.00000000E+00
  0.00000000E+00  0.00000000E+00  0.00000000E+00
  0.00000000E+00  0.00000000E+00  0.00000000E+00
  0.00000000E+00  0.00000000E+00  0.00000000E+00
