                                        
   1.00000000000000     
    -3.2154004283963298    0.0000000000000000    3.2154004283963298
     0.0000000000000000   -3.2154004283963298    3.2154004283963298
     3.2103491523023306    3.2103491523023306    6.4257495806986595
   Mo   Nb
     5     3
Direct
  0.2488054716786579  0.2488054716786579  0.2535835849640335
  0.8746045710920214  0.8746045710920214  0.3761862867239216
  0.1249616548135393  0.1249616548135393  0.6251150355593822
  0.7511777395347465  0.7511777395347465  0.7464667813957604
  0.3753300684282266  0.3753300684282266  0.8740097947153274
  0.0013484463364932  0.0013484463364932  0.9959546609905345
  0.6251017007329338  0.6251017007329338  0.1246948978011986
  0.4986703473833813  0.4986703473833813  0.5039889578498489
 
  0.00000000E+00  0.00000000E+00  0.00000000E+00
  0.00000000E+00  0.00000000E+00  0.00000000E+00
  0.00000000E+00  0.00000000E+00  0.00000000E+00
  0.00000000E+00  0.00000000E+00  0.00000000E+00
  0.00000000E+00  0.00000000E+00  0.00000000E+00
  0.00000000E+00  0.00000000E+00  0.00000000E+00
  0.00000000E+00  0.00000000E+00  0.00000000E+00
  0.00000000E+00  0.00000000E+00  0.00000000E+00
