                                        
   1.00000000000000     
     3.2032911630148595    0.0000000000000000    3.2032911630148599
     3.2032911630148595    3.2032911630148595    0.0000000000000000
    -1.5973186076278023    4.8006097706426614    4.8006097706426614
   Mo   Nb
     5     2
Direct
  0.8544809400003359  0.8544809400003359  0.4365571799989780
  0.7169476314282335  0.7169476314282335  0.8491571057153067
  0.4273173948671669  0.4273173948671669  0.7180478153985064
  0.2857142857142847  0.2857142857142847  0.1428571428571459
  0.1441111765614096  0.1441111765614096  0.5676664703157783
  0.0002155882267516  0.0002155882267516  0.9993532353197452
  0.5712129832018178  0.5712129832018178  0.2863610503945395
 
  0.00000000E+00  0.00000000E+00  0.00000000E+00
  0.00000000E+00  0.00000000E+00  0.00000000E+00
  0.00000000E+00  0.00000000E+00  0.00000000E+00
  0.00000000E+00  0.00000000E+00  0.00000000E+00
  0.00000000E+00  0.00000000E+00  0.00000000E+00
  0.00000000E+00  0.00000000E+00  0.00000000E+00
  0.00000000E+00  0.00000000E+00  0.00000000E+00
