                                        
   1.00000000000000     
     3.2476631562783815    0.0000000000000000    0.0000000000000000
     0.0000000000000000    6.5007273337033116    0.0000000000000000
     0.0000000000000000    0.0000000000000000    6.5410425985842533
   Mo   Nb
     3     5
Direct
  0.0000000000000000  0.0000000000000000  0.5062376634072834
  0.5000000000000000  0.7535476040874229  0.7464285721608164
  0.5000000000000000  0.2464523959125771  0.7464285721608164
  0.0000000000000000  0.0000000000000000  0.9917766335130764
  0.0000000000000000  0.5000000000000000  0.9939578517363046
  0.5000000000000000  0.2464940758927554  0.2535695656288368
  0.5000000000000000  0.7535059241072446  0.2535695656288368
  0.0000000000000000  0.5000000000000000  0.5080315757640435
 
  0.00000000E+00  0.00000000E+00  0.00000000E+00
  0.00000000E+00  0.00000000E+00  0.00000000E+00
  0.00000000E+00  0.00000000E+00  0.00000000E+00
  0.00000000E+00  0.00000000E+00  0.00000000E+00
  0.00000000E+00  0.00000000E+00  0.00000000E+00
  0.00000000E+00  0.00000000E+00  0.00000000E+00
  0.00000000E+00  0.00000000E+00  0.00000000E+00
  0.00000000E+00  0.00000000E+00  0.00000000E+00
