                                        
   1.00000000000000     
    -3.1842158302199262    0.0000000000000000    0.0000000000000000
     0.0000000000000000    3.1893284101317554    3.1893284101317554
     0.0000000000000000    3.1834853055826580   -6.3728137157144129
   Mo   Nb
     5     1
Direct
  0.5000000000000000  0.1694866071757843  0.3389732143515687
  0.0000000000000000  0.3326854362092817  0.6653708724185492
  0.5000000000000000  0.5000000000000000  0.0000000000000000
  0.0000000000000000  0.6673145637907183  0.3346291275814508
  0.5000000000000000  0.8305133928242157  0.6610267856484313
  0.0000000000000000  0.0000000000000000  0.0000000000000000
 
  0.00000000E+00  0.00000000E+00  0.00000000E+00
  0.00000000E+00  0.00000000E+00  0.00000000E+00
  0.00000000E+00  0.00000000E+00  0.00000000E+00
  0.00000000E+00  0.00000000E+00  0.00000000E+00
  0.00000000E+00  0.00000000E+00  0.00000000E+00
  0.00000000E+00  0.00000000E+00  0.00000000E+00
