                                        
   1.00000000000000     
     3.2303083218436019   -3.2303083218436019    0.0000000000000000
     1.6187320313785809    4.8490403532221835   -1.6223155041598742
    -0.0034685122799725   -0.0034685122799725    6.4753801967953164
   Mo   Nb
     4     4
Direct
  0.5000000000000000  0.0000000000000000  0.2500000000000000
  0.7461251490169687  0.4922502980339303  0.6260231201967486
  0.5000000000000000  0.0000000000000000  0.7500000000000000
  0.2538748509830313  0.5077497019660697  0.8739768798032514
  0.9994060325254139  0.9988120650508279  0.9959993851129312
  0.7449063990696985  0.4898127981393969  0.1191491129879125
  0.2550936009303015  0.5101872018606031  0.3808508870120875
  0.0005939674745861  0.0011879349491721  0.5040006148870688
 
  0.00000000E+00  0.00000000E+00  0.00000000E+00
  0.00000000E+00  0.00000000E+00  0.00000000E+00
  0.00000000E+00  0.00000000E+00  0.00000000E+00
  0.00000000E+00  0.00000000E+00  0.00000000E+00
  0.00000000E+00  0.00000000E+00  0.00000000E+00
  0.00000000E+00  0.00000000E+00  0.00000000E+00
  0.00000000E+00  0.00000000E+00  0.00000000E+00
  0.00000000E+00  0.00000000E+00  0.00000000E+00
