                                        
   1.00000000000000     
     3.2257933862773438   -3.2257933862773438    0.0000000000000000
     3.2257933862773438    3.2257933862773438    0.0000000000000000
    -3.2257933862773438    0.0000000000000000    6.4951316175080338
   Mo   Nb
     4     4
Direct
  0.1250000000000000  0.6250000000000000  0.2500000000000000
  0.5031294011420471  0.5031294011420471  0.0062588022840941
  0.2468705988579529  0.2468705988579529  0.4937411977159059
  0.6250000000000000  0.1250000000000000  0.2500000000000000
  0.0035419265021375  0.0035419265021375  0.0070838530042892
  0.3750000000000000  0.8750000000000000  0.7500000000000000
  0.7464580734978625  0.7464580734978625  0.4929161469957108
  0.8750000000000000  0.3750000000000000  0.7500000000000000
 
  0.00000000E+00  0.00000000E+00  0.00000000E+00
  0.00000000E+00  0.00000000E+00  0.00000000E+00
  0.00000000E+00  0.00000000E+00  0.00000000E+00
  0.00000000E+00  0.00000000E+00  0.00000000E+00
  0.00000000E+00  0.00000000E+00  0.00000000E+00
  0.00000000E+00  0.00000000E+00  0.00000000E+00
  0.00000000E+00  0.00000000E+00  0.00000000E+00
  0.00000000E+00  0.00000000E+00  0.00000000E+00
