                                        
   1.00000000000000     
     3.2106156841238285    0.0000000000000000   -3.2106156841238285
     1.6148338633486212    4.8306597892961074    1.6148338633486212
     3.2157183267701699   -3.2111343340748832    3.2157183267701699
   Mo   Nb
     5     3
Direct
  0.5000000000000000  0.7503624292026458  0.1253055783379509
  0.5000000000000000  0.2496375707973542  0.3746944216620491
  0.5000000000000000  0.7464997344866902  0.6259082425059219
  0.0000000000000000  0.5000000000000000  0.7500000000000000
  0.5000000000000000  0.2535002655133098  0.8740917574940781
  0.0000000000000000  0.9950626544304058  0.9975692902472062
  0.0000000000000000  0.5000000000000000  0.2500000000000000
  0.0000000000000000  0.0049373455695942  0.5024307097527938
 
  0.00000000E+00  0.00000000E+00  0.00000000E+00
  0.00000000E+00  0.00000000E+00  0.00000000E+00
  0.00000000E+00  0.00000000E+00  0.00000000E+00
  0.00000000E+00  0.00000000E+00  0.00000000E+00
  0.00000000E+00  0.00000000E+00  0.00000000E+00
  0.00000000E+00  0.00000000E+00  0.00000000E+00
  0.00000000E+00  0.00000000E+00  0.00000000E+00
  0.00000000E+00  0.00000000E+00  0.00000000E+00
