                                        
   1.00000000000000     
     0.0000000000000000    3.2135273085212170    3.2135273085212170
     3.2188186771324450   -3.2150468908456795    3.2150468908456795
     3.2188186771324450    3.2150468908456795   -3.2150468908456795
   Mo   Nb
     5     3
Direct
  0.0000000000000000  0.0033989738969638  0.5033989738969638
  0.5000000000000000  0.7500000000000000  0.7500000000000000
  0.0000000000000000  0.4966010261030362  0.9966010261030362
  0.5000000000000000  0.2500000000000000  0.2500000000000000
  0.5000000000000000  0.2500000000000000  0.7500000000000000
  0.0000000000000000  0.0002168807381153  0.9997831192618918
  0.5000000000000000  0.7500000000000000  0.2500000000000000
  0.0000000000000000  0.4997831192618847  0.5002168807381082
 
  0.00000000E+00  0.00000000E+00  0.00000000E+00
  0.00000000E+00  0.00000000E+00  0.00000000E+00
  0.00000000E+00  0.00000000E+00  0.00000000E+00
  0.00000000E+00  0.00000000E+00  0.00000000E+00
  0.00000000E+00  0.00000000E+00  0.00000000E+00
  0.00000000E+00  0.00000000E+00  0.00000000E+00
  0.00000000E+00  0.00000000E+00  0.00000000E+00
  0.00000000E+00  0.00000000E+00  0.00000000E+00
