                                        
   1.00000000000000     
     3.1946895895088323    0.0000000000000000    0.0000000000000000
     0.0000000000000000    6.3977069230988324    0.0118136867881594
     0.0000000000000000    0.0118136867881594    6.3977069230988324
   Mo   Nb
     6     2
Direct
  0.0000000000000000  0.5025712634235902  0.9974451194133422
  0.5000000000000000  0.7474287365764098  0.2525548805866578
  0.0000000000000000  0.5033308808234409  0.5033308808234409
  0.0000000000000000  0.9974451194133422  0.5025712634235902
  0.5000000000000000  0.7466691191765591  0.7466691191765591
  0.5000000000000000  0.2525548805866578  0.7474287365764098
  0.0000000000000000  0.9969271537313062  0.9969271537313062
  0.5000000000000000  0.2530728462686938  0.2530728462686938
 
  0.00000000E+00  0.00000000E+00  0.00000000E+00
  0.00000000E+00  0.00000000E+00  0.00000000E+00
  0.00000000E+00  0.00000000E+00  0.00000000E+00
  0.00000000E+00  0.00000000E+00  0.00000000E+00
  0.00000000E+00  0.00000000E+00  0.00000000E+00
  0.00000000E+00  0.00000000E+00  0.00000000E+00
  0.00000000E+00  0.00000000E+00  0.00000000E+00
  0.00000000E+00  0.00000000E+00  0.00000000E+00
