                                        
   1.00000000000000     
     1.6112219915107149   -1.6112219915107149    1.6134770972146646
     3.2126632222625764    3.2126632222625764    0.0000000000000000
    -4.8206036691543481    4.8206036691543481    8.0412721428028053
   Mo   Nb
     5     3
Direct
  0.3750000000000000  0.5000000000000000  0.1250000000000000
  0.1310783075603439  0.5000000000000000  0.3764546450857580
  0.4940198980440087  0.0000000000000000  0.5003985972884308
  0.2559801019559913  0.0000000000000000  0.7496014027115692
  0.6189216924396561  0.5000000000000000  0.8735453549142420
  0.0023292162199979  0.0000000000000000  0.9977830434457005
  0.7476707837800021  0.0000000000000000  0.2522169565542995
  0.8750000000000000  0.5000000000000000  0.6250000000000000
 
  0.00000000E+00  0.00000000E+00  0.00000000E+00
  0.00000000E+00  0.00000000E+00  0.00000000E+00
  0.00000000E+00  0.00000000E+00  0.00000000E+00
  0.00000000E+00  0.00000000E+00  0.00000000E+00
  0.00000000E+00  0.00000000E+00  0.00000000E+00
  0.00000000E+00  0.00000000E+00  0.00000000E+00
  0.00000000E+00  0.00000000E+00  0.00000000E+00
  0.00000000E+00  0.00000000E+00  0.00000000E+00
