                                        
   1.00000000000000     
    -1.5922383913393976    4.7954015100630771    1.6043687227685792
     4.7954015100630771   -1.5922383913393976    1.6043687227685792
     1.5905238292261297    1.5905238292261297   -4.7910067466339363
   Mo   Nb
     6     2
Direct
  0.3750000000000000  0.8750000000000000  0.7500000000000000
  0.1282418578287334  0.6217581421712666  0.2500000000000000
  0.4995592907068556  0.4995592907068556  0.9973777941869812
  0.8750000000000000  0.3750000000000000  0.7500000000000000
  0.2504407092931444  0.2504407092931444  0.5026222058130188
  0.6217581421712666  0.1282418578287334  0.2500000000000000
  0.0008321658174637  0.0008321658174637  0.0033783183096361
  0.7491678341825363  0.7491678341825363  0.4966216816903639
 
  0.00000000E+00  0.00000000E+00  0.00000000E+00
  0.00000000E+00  0.00000000E+00  0.00000000E+00
  0.00000000E+00  0.00000000E+00  0.00000000E+00
  0.00000000E+00  0.00000000E+00  0.00000000E+00
  0.00000000E+00  0.00000000E+00  0.00000000E+00
  0.00000000E+00  0.00000000E+00  0.00000000E+00
  0.00000000E+00  0.00000000E+00  0.00000000E+00
  0.00000000E+00  0.00000000E+00  0.00000000E+00
