                                        
   1.00000000000000     
     1.6458441794663921    1.6183498570623069   -1.6458441794663921
    -1.6458441794663921    1.6183498570623069    1.6458441794663921
     9.8242198222925801    0.0000000000000000    9.8242198222925801
   Mo   Nb
     2     4
Direct
  0.0000000000000000  0.0000000000000000  0.6733262757364997
  0.5000000000000000  0.5000000000000000  0.8266737242635003
  0.0000000000000000  0.0000000000000000  0.9892493366642512
  0.5000000000000000  0.5000000000000000  0.1629901807522245
  0.0000000000000000  0.0000000000000000  0.3370098192477755
  0.5000000000000000  0.5000000000000000  0.5107506633357417
 
  0.00000000E+00  0.00000000E+00  0.00000000E+00
  0.00000000E+00  0.00000000E+00  0.00000000E+00
  0.00000000E+00  0.00000000E+00  0.00000000E+00
  0.00000000E+00  0.00000000E+00  0.00000000E+00
  0.00000000E+00  0.00000000E+00  0.00000000E+00
  0.00000000E+00  0.00000000E+00  0.00000000E+00
