                                        
   1.00000000000000     
     1.6167662101672644    1.6167662101672644   -1.6125803659201072
    -3.2127607298798306    3.2127607298798306    0.0000000000000000
     4.8326797685112419    1.6199190386314115    8.0484233478153389
   Mo   Nb
     4     3
Direct
  0.7069401126502086  0.5723266396880149  0.1446532793760369
  0.2867061789002676  0.4296031437498797  0.8592062874997666
  0.8561509639568712  0.2846825705358356  0.5693651410716569
  0.4359170302069373  0.1419590745977004  0.2839181491953937
  0.0072874293229717  0.0013047896630525  0.0026095793261049
  0.5714285714285694  0.8571428571428541  0.7142857142857153
  0.1355697135341742  0.7129809246226628  0.4259618492453257
 
  0.00000000E+00  0.00000000E+00  0.00000000E+00
  0.00000000E+00  0.00000000E+00  0.00000000E+00
  0.00000000E+00  0.00000000E+00  0.00000000E+00
  0.00000000E+00  0.00000000E+00  0.00000000E+00
  0.00000000E+00  0.00000000E+00  0.00000000E+00
  0.00000000E+00  0.00000000E+00  0.00000000E+00
  0.00000000E+00  0.00000000E+00  0.00000000E+00
