                                        
   1.00000000000000     
     3.2117275820250977    0.0000000000000000    0.0000000000000000
     1.6058637910125488    4.8351644517751122    1.5973962291010728
     1.6058637910125488   -1.6230711766187598    8.0208850819954378
   Mo   Nb
     5     3
Direct
  0.2500000000000000  0.3750000000000000  0.1250000000000000
  0.7470039442555105  0.1317996341799486  0.3741924773090304
  0.0033963755884159  0.4914148801209777  0.5017923687021906
  0.4966036244115841  0.2585851198790223  0.7482076312978094
  0.7529960557444895  0.6182003658200514  0.8758075226909696
  0.9998059423787922  0.0037698430489499  0.9966182721934729
  0.5001940576212078  0.7462301569510501  0.2533817278065271
  0.2500000000000000  0.8750000000000000  0.6250000000000000
 
  0.00000000E+00  0.00000000E+00  0.00000000E+00
  0.00000000E+00  0.00000000E+00  0.00000000E+00
  0.00000000E+00  0.00000000E+00  0.00000000E+00
  0.00000000E+00  0.00000000E+00  0.00000000E+00
  0.00000000E+00  0.00000000E+00  0.00000000E+00
  0.00000000E+00  0.00000000E+00  0.00000000E+00
  0.00000000E+00  0.00000000E+00  0.00000000E+00
  0.00000000E+00  0.00000000E+00  0.00000000E+00
