                                        
   1.00000000000000     
     1.6681233254412167    1.6681233254412167   -1.6807319196417285
    -3.2478724353503505    3.2478724353503505    0.0000000000000000
     1.5907818006842704    1.5907818006842704    4.8879870246282309
   Mo   Nb
     1     3
Direct
  0.2500000000000000  0.5000000000000000  0.7500000000000000
  0.0073413915365919  0.0000000000000000  0.9948011128300109
  0.7500000000000000  0.5000000000000000  0.2500000000000000
  0.4926586084634081  0.0000000000000000  0.5051988871699891
 
  0.00000000E+00  0.00000000E+00  0.00000000E+00
  0.00000000E+00  0.00000000E+00  0.00000000E+00
  0.00000000E+00  0.00000000E+00  0.00000000E+00
  0.00000000E+00  0.00000000E+00  0.00000000E+00
