                                        
   1.00000000000000     
     3.1910025459270490   -3.1910025459270490    0.0000000000000000
     1.6054147104289542    4.7964172563560030   -1.6001238103336037
    -0.0022183065623396   -0.0022183065623396    6.3916328287754727
   Mo   Nb
     6     2
Direct
  0.4995413991188258  0.9990827982376445  0.2541452798856554
  0.2526109738784044  0.5052219477568016  0.3806487402252827
  0.0020113449013053  0.0040226898026177  0.5024801648304091
  0.7479886550986947  0.4959773101973823  0.6225198351695909
  0.4973890261215956  0.9947780522431984  0.7443512597747173
  0.2504586008811742  0.5009172017623555  0.8708547201143446
  0.0011749029343235  0.0023498058686400  0.9986019008749238
  0.7488250970656765  0.4976501941313600  0.1263980991250762
 
  0.00000000E+00  0.00000000E+00  0.00000000E+00
  0.00000000E+00  0.00000000E+00  0.00000000E+00
  0.00000000E+00  0.00000000E+00  0.00000000E+00
  0.00000000E+00  0.00000000E+00  0.00000000E+00
  0.00000000E+00  0.00000000E+00  0.00000000E+00
  0.00000000E+00  0.00000000E+00  0.00000000E+00
  0.00000000E+00  0.00000000E+00  0.00000000E+00
  0.00000000E+00  0.00000000E+00  0.00000000E+00
