                                        
   1.00000000000000     
     3.2155061654148693    0.0000000000000000    0.0000000000000000
     0.0000000000000000    3.2155061654148693    0.0000000000000000
     0.0000000000000000    0.0000000000000000   12.9035193673243445
   Mo   Nb
     5     3
Direct
  0.5000000000000000  0.5000000000000000  0.1232216772336869
  0.5000000000000000  0.5000000000000000  0.3767783227663131
  0.5000000000000000  0.5000000000000000  0.6297768286423207
  0.0000000000000000  0.0000000000000000  0.7500000000000000
  0.5000000000000000  0.5000000000000000  0.8702231713576793
  0.0000000000000000  0.0000000000000000  0.9982657769791814
  0.0000000000000000  0.0000000000000000  0.2500000000000000
  0.0000000000000000  0.0000000000000000  0.5017342230208186
 
  0.00000000E+00  0.00000000E+00  0.00000000E+00
  0.00000000E+00  0.00000000E+00  0.00000000E+00
  0.00000000E+00  0.00000000E+00  0.00000000E+00
  0.00000000E+00  0.00000000E+00  0.00000000E+00
  0.00000000E+00  0.00000000E+00  0.00000000E+00
  0.00000000E+00  0.00000000E+00  0.00000000E+00
  0.00000000E+00  0.00000000E+00  0.00000000E+00
  0.00000000E+00  0.00000000E+00  0.00000000E+00
