                                        
   1.00000000000000     
     1.6402750900737271    1.6146299040360204   -1.6402750900737271
    -1.6402750900737271    1.6146299040360206    1.6402750900737271
    11.3312419236755897   -1.6146299040360204   11.3312419236755897
   Mo   Nb
     3     4
Direct
  0.5749310090982789  0.5749310090982789  0.1498620181965649
  0.2835649706271823  0.2835649706271823  0.5671299412543647
  0.1417563295407831  0.1417563295407831  0.2835126590815520
  0.0042929793151885  0.0042929793151885  0.0085859586303769
  0.8535225441947816  0.8535225441947816  0.7070450883895631
  0.7128945344196325  0.7128945344196325  0.4257890688392578
  0.4290376328041603  0.4290376328041603  0.8580752656083206
 
  0.00000000E+00  0.00000000E+00  0.00000000E+00
  0.00000000E+00  0.00000000E+00  0.00000000E+00
  0.00000000E+00  0.00000000E+00  0.00000000E+00
  0.00000000E+00  0.00000000E+00  0.00000000E+00
  0.00000000E+00  0.00000000E+00  0.00000000E+00
  0.00000000E+00  0.00000000E+00  0.00000000E+00
  0.00000000E+00  0.00000000E+00  0.00000000E+00
