                                        
   1.00000000000000     
     1.6146718858930209    1.6146718858930209   -1.6291553305700199
    -3.2293563477496163    3.2293563477496163    0.0000000000000000
     1.6007311235992079    1.6007311235992079    4.8595346790522713
   Mo   Nb
     2     2
Direct
  0.4982660801895449  0.0000000000000000  0.5031800199545913
  0.2517339198104551  0.5000000000000000  0.7468199800454087
  0.0028609977554979  0.0000000000000000  0.9959836502516026
  0.7471390022445021  0.5000000000000000  0.2540163497483974
 
  0.00000000E+00  0.00000000E+00  0.00000000E+00
  0.00000000E+00  0.00000000E+00  0.00000000E+00
  0.00000000E+00  0.00000000E+00  0.00000000E+00
  0.00000000E+00  0.00000000E+00  0.00000000E+00
