                                        
   1.00000000000000     
     3.2315543456849967    0.0000000000000000    3.2315543456849967
     3.2315543456849967    3.2315543456849967    0.0000000000000000
    -1.6743101126974871    4.9058644583824833    4.9058644583824833
   Mo   Nb
     3     4
Direct
  0.7142857142857153  0.7142857142857153  0.8571428571428541
  0.2836861952132068  0.2836861952132068  0.1489414143603796
  0.1448852333582238  0.1448852333582238  0.5653442999253357
  0.0018140127829938  0.0018140127829938  0.9945579616510258
  0.8534987134437984  0.8534987134437984  0.4395038596686049
  0.5750727151276251  0.5750727151276251  0.2747818546171104
  0.4267574157884368  0.4267574157884368  0.7197277526346895
 
  0.00000000E+00  0.00000000E+00  0.00000000E+00
  0.00000000E+00  0.00000000E+00  0.00000000E+00
  0.00000000E+00  0.00000000E+00  0.00000000E+00
  0.00000000E+00  0.00000000E+00  0.00000000E+00
  0.00000000E+00  0.00000000E+00  0.00000000E+00
  0.00000000E+00  0.00000000E+00  0.00000000E+00
  0.00000000E+00  0.00000000E+00  0.00000000E+00
