                                        
   1.00000000000000     
    -3.2077061223964556    0.0000000000000000    0.0000000000000000
     0.0000000000000000    3.2135671369358851    3.2135671369358851
     0.0000000000000000    3.1989626703527052   -6.4125298072885899
   Mo   Nb
     4     2
Direct
  0.5000000000000000  0.1666666666666643  0.3333333333333357
  0.5000000000000000  0.5029037483005894  0.0058074966011787
  0.0000000000000000  0.6666666666666643  0.3333333333333357
  0.5000000000000000  0.8304295850327463  0.6608591700654856
  0.0000000000000000  0.0006579093230883  0.0013158186461766
  0.0000000000000000  0.3326754240102474  0.6653508480204877
 
  0.00000000E+00  0.00000000E+00  0.00000000E+00
  0.00000000E+00  0.00000000E+00  0.00000000E+00
  0.00000000E+00  0.00000000E+00  0.00000000E+00
  0.00000000E+00  0.00000000E+00  0.00000000E+00
  0.00000000E+00  0.00000000E+00  0.00000000E+00
  0.00000000E+00  0.00000000E+00  0.00000000E+00
