                                        
   1.00000000000000     
     1.6139218733761951   -1.6063876512522077    1.6139218733761951
     1.6133342283988346    4.8179934165566722    1.6133342283988346
    -6.4201558585633896    0.0000000000000000    6.4201558585633896
   Mo   Nb
     5     3
Direct
  0.7512924592050041  0.2486121231841452  0.2536505701918088
  0.2487075407949959  0.7513878768158548  0.2536505701918088
  0.0000000000000000  0.0000000000000000  0.5000000000000000
  0.2487075407949959  0.7513878768158548  0.7463494298081912
  0.7512924592050041  0.2486121231841452  0.7463494298081912
  0.0000000000000000  0.0000000000000000  0.0000000000000000
  0.5000000000000000  0.5000000000000000  0.0000000000000000
  0.5000000000000000  0.5000000000000000  0.5000000000000000
 
  0.00000000E+00  0.00000000E+00  0.00000000E+00
  0.00000000E+00  0.00000000E+00  0.00000000E+00
  0.00000000E+00  0.00000000E+00  0.00000000E+00
  0.00000000E+00  0.00000000E+00  0.00000000E+00
  0.00000000E+00  0.00000000E+00  0.00000000E+00
  0.00000000E+00  0.00000000E+00  0.00000000E+00
  0.00000000E+00  0.00000000E+00  0.00000000E+00
  0.00000000E+00  0.00000000E+00  0.00000000E+00
