                                        
   1.00000000000000     
     3.2191380215095040    0.0000000000000000    0.0000000000000000
    -1.6095690107547520    4.8371202591234139    1.6283994361154239
     0.0000000000000000   -3.2054552938489320    6.4555928526150277
   Mo   Nb
     4     3
Direct
  0.1445177061500473  0.2890354123000947  0.4248284063788219
  0.7150704523048290  0.4301409046096580  0.1496412645992322
  0.8563581191237404  0.7127162382474879  0.5646444496864831
  0.4269108652785292  0.8538217305570441  0.2894573079068934
  0.0017907689161021  0.0035815378322042  0.0073311091897139
  0.5696378025124673  0.1392756050249417  0.7069546050960014
  0.2857142857142847  0.5714285714285694  0.8571428571428541
 
  0.00000000E+00  0.00000000E+00  0.00000000E+00
  0.00000000E+00  0.00000000E+00  0.00000000E+00
  0.00000000E+00  0.00000000E+00  0.00000000E+00
  0.00000000E+00  0.00000000E+00  0.00000000E+00
  0.00000000E+00  0.00000000E+00  0.00000000E+00
  0.00000000E+00  0.00000000E+00  0.00000000E+00
  0.00000000E+00  0.00000000E+00  0.00000000E+00
