                                        
   1.00000000000000     
     1.6055147402393812    1.6122436527894519    1.6122436527894519
    -4.8181457254425162    1.6130447900901697    1.6130447900901697
     1.6063154926015677   -8.0325884131297247    4.8072999702501038
   Mo   Nb
     5     3
Direct
  0.1207556778918573  0.6245472540905439  0.7463133979142000
  0.3792443221081427  0.8754527459094561  0.2536866020858000
  0.6255577200223357  0.1217661438236561  0.7463133979142000
  0.7500000000000000  0.7500000000000000  0.5000000000000000
  0.8744422799776643  0.3782338561763439  0.2536866020858000
  0.9995999623209713  0.9995999623209713  0.9991999246419283
  0.2500000000000000  0.2500000000000000  0.5000000000000000
  0.5004000376790287  0.5004000376790287  0.0008000753580646
 
  0.00000000E+00  0.00000000E+00  0.00000000E+00
  0.00000000E+00  0.00000000E+00  0.00000000E+00
  0.00000000E+00  0.00000000E+00  0.00000000E+00
  0.00000000E+00  0.00000000E+00  0.00000000E+00
  0.00000000E+00  0.00000000E+00  0.00000000E+00
  0.00000000E+00  0.00000000E+00  0.00000000E+00
  0.00000000E+00  0.00000000E+00  0.00000000E+00
  0.00000000E+00  0.00000000E+00  0.00000000E+00
