                                        
   1.00000000000000     
     3.1737844199550764    0.0000000000000000    0.0000000000000000
     0.0000000000000000    3.1744101294300657    3.1744101294300657
    -0.0000000000000001   -6.3657813783185686    6.3657813783185686
   Mo   Nb
     7     1
Direct
  0.5000000000000000  0.5000000000000000  0.0000000000000000
  0.5000000000000000  0.0000000000000000  0.2550306295548310
  0.0000000000000000  0.5000000000000000  0.2517943992689027
  0.0000000000000000  0.0000000000000000  0.5000000000000000
  0.5000000000000000  0.5000000000000000  0.5000000000000000
  0.5000000000000000  0.0000000000000000  0.7449693704451690
  0.0000000000000000  0.5000000000000000  0.7482056007310973
  0.0000000000000000  0.0000000000000000  0.0000000000000000
 
  0.00000000E+00  0.00000000E+00  0.00000000E+00
  0.00000000E+00  0.00000000E+00  0.00000000E+00
  0.00000000E+00  0.00000000E+00  0.00000000E+00
  0.00000000E+00  0.00000000E+00  0.00000000E+00
  0.00000000E+00  0.00000000E+00  0.00000000E+00
  0.00000000E+00  0.00000000E+00  0.00000000E+00
  0.00000000E+00  0.00000000E+00  0.00000000E+00
  0.00000000E+00  0.00000000E+00  0.00000000E+00
