                                        
   1.00000000000000     
     1.6296719059864004    1.6105662329629664   -1.6296719059864004
    -1.6296719059864004    1.6105662329629662    1.6296719059864004
     9.6842766428996860    0.0000000000000000    9.6842766428996860
   Mo   Nb
     3     3
Direct
  0.0000000000000000  0.0000000000000000  0.3368015874093473
  0.0000000000000000  0.0000000000000000  0.6698155786340934
  0.5000000000000000  0.5000000000000000  0.8265549343873531
  0.0000000000000000  0.0000000000000000  0.9929213608199348
  0.5000000000000000  0.5000000000000000  0.1707697665028576
  0.5000000000000000  0.5000000000000000  0.5031367722464353
 
  0.00000000E+00  0.00000000E+00  0.00000000E+00
  0.00000000E+00  0.00000000E+00  0.00000000E+00
  0.00000000E+00  0.00000000E+00  0.00000000E+00
  0.00000000E+00  0.00000000E+00  0.00000000E+00
  0.00000000E+00  0.00000000E+00  0.00000000E+00
  0.00000000E+00  0.00000000E+00  0.00000000E+00
