                                        
   1.00000000000000     
    -3.1938000094152419    0.0000000000000000    0.0000000000000000
     0.0000000000000000    3.1947288080885081    3.1947288080885081
     0.0000000000000000    3.1947288080885081   -3.1947288080885081
   Mo   Nb
     3     1
Direct
  0.5000000000000000  0.0000000000000000  0.5000000000000000
  0.5000000000000000  0.5000000000000000  0.0000000000000000
  0.0000000000000000  0.5000000000000000  0.5000000000000000
  0.0000000000000000  0.0000000000000000  0.0000000000000000
 
  0.00000000E+00  0.00000000E+00  0.00000000E+00
  0.00000000E+00  0.00000000E+00  0.00000000E+00
  0.00000000E+00  0.00000000E+00  0.00000000E+00
  0.00000000E+00  0.00000000E+00  0.00000000E+00
