                                        
   1.00000000000000     
    -1.6445565581742567    4.9148414204100463    1.6184161813906932
     4.9148414204100463   -1.6445565581742567    1.6184161813906932
     1.6654049068956738    1.6654049068956738   -4.9157477256563951
   Mo   Nb
     2     6
Direct
  0.8743373583312888  0.3743373583312888  0.7444076713037120
  0.6256626416687112  0.1256626416687112  0.2555923286962880
  0.9926800035419703  0.0073199964580297  0.0000000000000000
  0.3753787887431486  0.8753787887431486  0.7561375232818435
  0.7500000000000000  0.7500000000000000  0.5000000000000000
  0.1246212112568514  0.6246212112568514  0.2438624767181565
  0.5073199964580297  0.4926800035419703  0.0000000000000000
  0.2500000000000000  0.2500000000000000  0.5000000000000000
 
  0.00000000E+00  0.00000000E+00  0.00000000E+00
  0.00000000E+00  0.00000000E+00  0.00000000E+00
  0.00000000E+00  0.00000000E+00  0.00000000E+00
  0.00000000E+00  0.00000000E+00  0.00000000E+00
  0.00000000E+00  0.00000000E+00  0.00000000E+00
  0.00000000E+00  0.00000000E+00  0.00000000E+00
  0.00000000E+00  0.00000000E+00  0.00000000E+00
  0.00000000E+00  0.00000000E+00  0.00000000E+00
