                                        
   1.00000000000000     
     3.2359707230345980    0.0000000000000000    3.2359707230345980
     3.2359707230345980    3.2359707230345980    0.0000000000000000
    -1.6476937586902805    4.8836644817248773    4.8836644817248773
   Mo   Nb
     3     4
Direct
  0.4280771618094619  0.4280771618094619  0.7157685145716357
  0.2857142857142847  0.2857142857142847  0.1428571428571459
  0.1433514096191146  0.1433514096191146  0.5699457711426490
  0.0000554746659134  0.0000554746659134  0.9998335760022528
  0.8555980144860840  0.8555980144860840  0.4332059565417339
  0.7158305569424854  0.7158305569424854  0.8525083291725508
  0.5713730967626560  0.5713730967626560  0.2858807097120319
 
  0.00000000E+00  0.00000000E+00  0.00000000E+00
  0.00000000E+00  0.00000000E+00  0.00000000E+00
  0.00000000E+00  0.00000000E+00  0.00000000E+00
  0.00000000E+00  0.00000000E+00  0.00000000E+00
  0.00000000E+00  0.00000000E+00  0.00000000E+00
  0.00000000E+00  0.00000000E+00  0.00000000E+00
  0.00000000E+00  0.00000000E+00  0.00000000E+00
