                                        
   1.00000000000000     
     3.1974990192403521    0.0000000000000000    0.0000000000000000
     0.0000000000000000    3.1904032440847936    3.1904032440847936
     0.0000000000000000   -6.4042468069161469    6.4042468069161469
   Mo   Nb
     6     2
Direct
  0.5000000000000000  0.5000000000000000  0.9976664238886670
  0.0000000000000000  0.5000000000000000  0.2523335761113330
  0.0000000000000000  0.0000000000000000  0.5055867102133220
  0.5000000000000000  0.5000000000000000  0.5019138616452139
  0.5000000000000000  0.0000000000000000  0.7444132897866780
  0.0000000000000000  0.5000000000000000  0.7480861383547861
  0.0000000000000000  0.0000000000000000  0.9947652811579104
  0.5000000000000000  0.0000000000000000  0.2552347188420896
 
  0.00000000E+00  0.00000000E+00  0.00000000E+00
  0.00000000E+00  0.00000000E+00  0.00000000E+00
  0.00000000E+00  0.00000000E+00  0.00000000E+00
  0.00000000E+00  0.00000000E+00  0.00000000E+00
  0.00000000E+00  0.00000000E+00  0.00000000E+00
  0.00000000E+00  0.00000000E+00  0.00000000E+00
  0.00000000E+00  0.00000000E+00  0.00000000E+00
  0.00000000E+00  0.00000000E+00  0.00000000E+00
