                                        
   1.00000000000000     
     3.2262643476352872    3.2262643476352872    0.0000000000000000
     3.2262643476352872   -3.2262643476352872    0.0000000000000000
     0.0000000000000000    0.0000000000000000   -6.5075251130783736
   Mo   Nb
     4     4
Direct
  0.5000000000000000  0.0000000000000000  0.2559592819757697
  0.0000000000000000  0.0000000000000000  0.5000000000000000
  0.5000000000000000  0.5000000000000000  0.5000000000000000
  0.0000000000000000  0.5000000000000000  0.7440407180242303
  0.0000000000000000  0.0000000000000000  0.0000000000000000
  0.5000000000000000  0.5000000000000000  0.0000000000000000
  0.0000000000000000  0.5000000000000000  0.2576407949404143
  0.5000000000000000  0.0000000000000000  0.7423592050595857
 
  0.00000000E+00  0.00000000E+00  0.00000000E+00
  0.00000000E+00  0.00000000E+00  0.00000000E+00
  0.00000000E+00  0.00000000E+00  0.00000000E+00
  0.00000000E+00  0.00000000E+00  0.00000000E+00
  0.00000000E+00  0.00000000E+00  0.00000000E+00
  0.00000000E+00  0.00000000E+00  0.00000000E+00
  0.00000000E+00  0.00000000E+00  0.00000000E+00
  0.00000000E+00  0.00000000E+00  0.00000000E+00
