                                        
   1.00000000000000     
     3.2261727572443215    0.0000000000000000    0.0000000000000000
     0.0000000000000000    3.2261727572443215    0.0000000000000000
     0.0000000000000000    0.0000000000000000   13.0216626457530520
   Mo   Nb
     4     4
Direct
  0.5000000000000000  0.5000000000000000  0.3821731921489615
  0.0000000000000000  0.0000000000000000  0.4994357305822845
  0.0000000000000000  0.0000000000000000  0.7505642694177155
  0.5000000000000000  0.5000000000000000  0.8678268078510385
  0.0000000000000000  0.0000000000000000  0.9941152533528026
  0.5000000000000000  0.5000000000000000  0.1250000000000000
  0.0000000000000000  0.0000000000000000  0.2558847466471974
  0.5000000000000000  0.5000000000000000  0.6250000000000000
 
  0.00000000E+00  0.00000000E+00  0.00000000E+00
  0.00000000E+00  0.00000000E+00  0.00000000E+00
  0.00000000E+00  0.00000000E+00  0.00000000E+00
  0.00000000E+00  0.00000000E+00  0.00000000E+00
  0.00000000E+00  0.00000000E+00  0.00000000E+00
  0.00000000E+00  0.00000000E+00  0.00000000E+00
  0.00000000E+00  0.00000000E+00  0.00000000E+00
  0.00000000E+00  0.00000000E+00  0.00000000E+00
