                                        
   1.00000000000000     
    -3.2547353868172086    0.0000000000000000    3.2547353868172086
     0.0000000000000000   -3.2547353868172086    3.2547353868172086
     3.2561925612830325    3.2561925612830325    6.5109279481002407
   Mo   Nb
     3     5
Direct
  0.8734235434472311  0.8734235434472311  0.3797293696582997
  0.7500566299817066  0.7500566299817066  0.7498301100548730
  0.3763887367186811  0.3763887367186811  0.8708337898439638
  0.9999637244945703  0.9999637244945703  0.0001088265162821
  0.6269280455776993  0.6269280455776993  0.1192158632669020
  0.2498952955108464  0.2498952955108464  0.2503141134674607
  0.5000815078805445  0.5000815078805445  0.4997554763583736
  0.1232625163887207  0.1232625163887207  0.6302124508338309
 
  0.00000000E+00  0.00000000E+00  0.00000000E+00
  0.00000000E+00  0.00000000E+00  0.00000000E+00
  0.00000000E+00  0.00000000E+00  0.00000000E+00
  0.00000000E+00  0.00000000E+00  0.00000000E+00
  0.00000000E+00  0.00000000E+00  0.00000000E+00
  0.00000000E+00  0.00000000E+00  0.00000000E+00
  0.00000000E+00  0.00000000E+00  0.00000000E+00
  0.00000000E+00  0.00000000E+00  0.00000000E+00
